&CONTROL
	calculation = 'vc-relax'
	restart_mode = 'from_scratch'
	prefix = 'C2Cn'
	pseudo_dir ='./pseudo/'
	outdir='./TMP_DIR/'
	etot_conv_thr = 1.0E-6		
	forc_conv_thr = 1.94E-6
	tstress = .true.		
/
&SYSTEM
	ibrav = 0,
	celldm(1) = 33.23461096
	nat= 98,
	ntyp= 5,
	ecutwfc = 40.0
	nbnd = 245
	occupations = 'from_input' 
	nspin = 2,			! required for spin polarized calc
	starting_magnetization(3) = 1
	vdw_corr = 'Grimme-D3'
/
&ELECTRONS
	diagonalization = 'cg'
	conv_thr = 1.0E-10		! get to -12
/
&IONS
	ion_dynamics="bfgs"
/
&CELL
	cell_dofree = "2Dxy"
	cell_dynamics = 'bfgs'
	press = 0.0
	press_conv_thr = 0.1
	cell_factor = 4.0
/

ATOMIC_SPECIES
  B  10 B.pbe-n-kjpaw_psl.1.0.0.UPF
  N  14 N.pbe-n-kjpaw_psl.1.0.0.UPF
  C1 12 C.pbe-n-kjpaw_psl.1.0.0.UPF
  C2 12 C.pbe-n-kjpaw_psl.1.0.0.UPF
  C3 12 C.pbe-n-kjpaw_psl.1.0.0.UPF

ATOMIC_POSITIONS {crystal}
B        0.047259250   0.094668175   0.500000000
B        0.047319131   0.237770861   0.500000000
B        0.047282927   0.380904172   0.500000000
B        0.047200975   0.523754781   0.500000000
B        0.047665959   0.666629610   0.500000000
B        0.047947568   0.809616820   0.500000000
B        0.047715315   0.952284622   0.500000000
B        0.189875956   0.094273219   0.500000000
B        0.189157650   0.236436784   0.500000000
B        0.190047596   0.380744488   0.500000000
B        0.189484837   0.523730386   0.500000000
B        0.189674712   0.666776328   0.500000000
B        0.190386488   0.809613786   0.500000000
B        0.190383366   0.952052525   0.500000000
B        0.333175030   0.094255957   0.500000000
B        0.332543131   0.235897735   0.500000000
B        0.331311139   0.377102145   0.500000000
B        0.332352182   0.525249705   0.500000000
B        0.331934852   0.668065136   0.500000000
B        0.333223773   0.810325539   0.500000000
B        0.333370521   0.952334240   0.500000000
B        0.476244448   0.095117705   0.500000000
B        0.475996302   0.237637392   0.500000000
B        0.474729209   0.379472665   0.500000000
C2       0.477582003   0.522417967   0.500000000
B        0.474750234   0.667647738   0.500000000
B        0.476269667   0.810515328   0.500000000
B        0.476245177   0.952799227   0.500000000
B        0.618974413   0.095292784   0.500000000
B        0.618983006   0.238015140   0.500000000
B        0.619037099   0.380962814   0.500000000
B        0.620527228   0.525270788   0.500000000
B        0.622897941   0.668688931   0.500000000
B        0.619255680   0.809952516   0.500000000
B        0.619095884   0.952717139   0.500000000
B        0.761852710   0.095319761   0.500000000
B        0.761817547   0.238182276   0.500000000
B        0.761984652   0.381016789   0.500000000
B        0.762362443   0.524003666   0.500000000
B        0.764102193   0.667456979   0.500000000
B        0.763563285   0.810842460   0.500000000
B        0.762229234   0.952680851   0.500000000
B        0.904814231   0.095185638   0.500000000
B        0.904680122   0.238147218   0.500000000
B        0.904707133   0.381025433   0.500000000
B        0.904882260   0.523755454   0.500000000
B        0.905743957   0.666825078   0.500000000
B        0.905726682   0.810124153   0.500000000
B        0.905331629   0.952740575   0.500000000
N        0.094940483   0.047171870   0.500000000
N        0.094393115   0.189592056   0.500000000
N        0.094868199   0.333132425   0.500000000
N        0.094526293   0.476040441   0.500000000
N        0.094731404   0.618903292   0.500000000
N        0.095297547   0.761874404   0.500000000
N        0.095327779   0.904672126   0.500000000
N        0.237938523   0.047043906   0.500000000
N        0.237223982   0.189124281   0.500000000
N        0.236496585   0.331412706   0.500000000
N        0.237075988   0.476254576   0.500000000
N        0.236785928   0.619232654   0.500000000
N        0.237877110   0.762122687   0.500000000
N        0.238125429   0.904702303   0.500000000
N        0.381109925   0.047324775   0.500000000
N        0.380896982   0.189224551   0.500000000
N        0.379843033   0.330148057   0.500000000
C1       0.382796316   0.475904689   0.500000000
N        0.378909911   0.621089998   0.500000000
N        0.380767292   0.763213915   0.500000000
N        0.381096663   0.905268478   0.500000000
N        0.523924062   0.047848946   0.500000000
N        0.523865849   0.190478184   0.500000000
N        0.523599124   0.333503953   0.500000000
N        0.523087816   0.476912137   0.500000000
C3       0.524095311   0.617203648   0.500000000
N        0.523745400   0.762923933   0.500000000
N        0.523959623   0.905473724   0.500000000
N        0.666686558   0.047860782   0.500000000
N        0.666602645   0.190575972   0.500000000
N        0.666522862   0.333477164   0.500000000
N        0.666496066   0.476400892   0.500000000
N        0.669851957   0.620156899   0.500000000
N        0.668587231   0.763503277   0.500000000
N        0.666867590   0.905131816   0.500000000
N        0.809595829   0.047793156   0.500000000
N        0.809429875   0.190570181   0.500000000
N        0.809424086   0.333397442   0.500000000
N        0.809521923   0.476134266   0.500000000
N        0.810775556   0.619102997   0.500000000
N        0.810875739   0.762775878   0.500000000
N        0.810407961   0.905606816   0.500000000
N        0.952392654   0.047607433   0.500000000
N        0.952206965   0.190404267   0.500000000
N        0.952139319   0.333313537   0.500000000
N        0.952151194   0.476076106   0.500000000
N        0.952675289   0.618890094   0.500000000
N        0.952956097   0.762061360   0.500000000
N        0.952828198   0.905059480   0.500000000


K_POINTS gamma 

CELL_PARAMETERS alat
   1.001024430   0.000197803   0.000000000
  -0.500340912   0.867011492   0.000000000
   0.000000000   0.000000000   1.137203616


OCCUPATIONS
  1.0 1.0 1.0 1.0 1.0 1.0 1.0 1.0
  1.0 1.0 1.0 1.0 1.0 1.0 1.0 1.0
  1.0 1.0 1.0 1.0 1.0 1.0 1.0 1.0
  1.0 1.0 1.0 1.0 1.0 1.0 1.0 1.0
  1.0 1.0 1.0 1.0 1.0 1.0 1.0 1.0
  1.0 1.0 1.0 1.0 1.0 1.0 1.0 1.0
  1.0 1.0 1.0 1.0 1.0 1.0 1.0 1.0
  1.0 1.0 1.0 1.0 1.0 1.0 1.0 1.0
  1.0 1.0 1.0 1.0 1.0 1.0 1.0 1.0
  1.0 1.0 1.0 1.0 1.0 1.0 1.0 1.0
  1.0 1.0 1.0 1.0 1.0 1.0 1.0 1.0
  1.0 1.0 1.0 1.0 1.0 1.0 1.0 1.0
  1.0 1.0 1.0 1.0 1.0 1.0 1.0 1.0
  1.0 1.0 1.0 1.0 1.0 1.0 1.0 1.0
  1.0 1.0 1.0 1.0 1.0 1.0 1.0 1.0
  1.0 1.0 1.0 1.0 1.0 1.0 1.0 1.0
  1.0 1.0 1.0 1.0 1.0 1.0 1.0 1.0
  1.0 1.0 1.0 1.0 1.0 1.0 1.0 1.0
  1.0 1.0 1.0 1.0 1.0 1.0 1.0 1.0
  1.0 1.0 1.0 1.0 1.0 1.0 1.0 1.0
  1.0 1.0 1.0 1.0 1.0 1.0 1.0 1.0
  1.0 1.0 1.0 1.0 1.0 1.0 1.0 1.0
  1.0 1.0 1.0 1.0 1.0 1.0 1.0 1.0
  1.0 1.0 1.0 1.0 1.0 1.0 1.0 1.0
  1.0 1.0 1.0 1.0 0.0 0.0 0.0 0.0
  0.0 0.0 0.0 0.0 0.0 0.0 0.0 0.0
  0.0 0.0 0.0 0.0 0.0 0.0 0.0 0.0
  0.0 0.0 0.0 0.0 0.0 0.0 0.0 0.0
  0.0 0.0 0.0 0.0 0.0 0.0 0.0 0.0
  0.0 0.0 0.0 0.0 0.0 0.0 0.0 0.0
  0.0 0.0 0.0 0.0 0.0
  1.0 1.0 1.0 1.0 1.0 1.0 1.0 1.0
  1.0 1.0 1.0 1.0 1.0 1.0 1.0 1.0
  1.0 1.0 1.0 1.0 1.0 1.0 1.0 1.0
  1.0 1.0 1.0 1.0 1.0 1.0 1.0 1.0
  1.0 1.0 1.0 1.0 1.0 1.0 1.0 1.0
  1.0 1.0 1.0 1.0 1.0 1.0 1.0 1.0
  1.0 1.0 1.0 1.0 1.0 1.0 1.0 1.0
  1.0 1.0 1.0 1.0 1.0 1.0 1.0 1.0
  1.0 1.0 1.0 1.0 1.0 1.0 1.0 1.0
  1.0 1.0 1.0 1.0 1.0 1.0 1.0 1.0
  1.0 1.0 1.0 1.0 1.0 1.0 1.0 1.0
  1.0 1.0 1.0 1.0 1.0 1.0 1.0 1.0
  1.0 1.0 1.0 1.0 1.0 1.0 1.0 1.0
  1.0 1.0 1.0 1.0 1.0 1.0 1.0 1.0
  1.0 1.0 1.0 1.0 1.0 1.0 1.0 1.0
  1.0 1.0 1.0 1.0 1.0 1.0 1.0 1.0
  1.0 1.0 1.0 1.0 1.0 1.0 1.0 1.0
  1.0 1.0 1.0 1.0 1.0 1.0 1.0 1.0
  1.0 1.0 1.0 1.0 1.0 1.0 1.0 1.0
  1.0 1.0 1.0 1.0 1.0 1.0 1.0 1.0
  1.0 1.0 1.0 1.0 1.0 1.0 1.0 1.0
  1.0 1.0 1.0 1.0 1.0 1.0 1.0 1.0
  1.0 1.0 1.0 1.0 1.0 1.0 1.0 1.0
  1.0 1.0 1.0 1.0 1.0 1.0 1.0 1.0
  1.0 1.0 0.0 0.0 1.0 0.0 0.0 0.0
  0.0 0.0 0.0 0.0 0.0 0.0 0.0 0.0
  0.0 0.0 0.0 0.0 0.0 0.0 0.0 0.0
  0.0 0.0 0.0 0.0 0.0 0.0 0.0 0.0
  0.0 0.0 0.0 0.0 0.0 0.0 0.0 0.0
  0.0 0.0 0.0 0.0 0.0 0.0 0.0 0.0
  0.0 0.0 0.0 0.0 0.0
  
