&CONTROL
	calculation = 'vc-relax'
	restart_mode = 'from_scratch'
	prefix = 'C2Cn'
	pseudo_dir ='./pseudo/'
	outdir='./TMP_DIR/'
	etot_conv_thr = 1.0E-6		
	forc_conv_thr = 1.94E-5
	tstress = .true.		
/
&SYSTEM
	ibrav = 0,
	celldm(1) = 33.23461096
	nat= 98,
	ntyp= 5,
	ecutwfc = 40.0
	nbnd = 245
	occupations = 'from_input' 
	nspin = 2,			! required for spin polarized calc
	starting_magnetization(3) = 1
	vdw_corr = 'Grimme-D3'
/
&ELECTRONS
	diagonalization = 'cg'
	conv_thr = 1.0E-10		! get to -12
/
&IONS
	ion_dynamics="bfgs"
/
&CELL
	cell_dofree = "2Dxy"
	cell_dynamics = 'bfgs'
	press = 0.0
	press_conv_thr = 0.1
	cell_factor = 4.0
/

ATOMIC_SPECIES
  B  10 B.pbe-n-kjpaw_psl.1.0.0.UPF
  N  14 N.pbe-n-kjpaw_psl.1.0.0.UPF
  C1 12 C.pbe-n-kjpaw_psl.1.0.0.UPF
  C2 12 C.pbe-n-kjpaw_psl.1.0.0.UPF
  C3 12 C.pbe-n-kjpaw_psl.1.0.0.UPF

ATOMIC_POSITIONS {crystal}
B        0.047259508   0.094672114   0.500000000
B        0.047317553   0.237768031   0.500000000
B        0.047280519   0.380909359   0.500000000
B        0.047210623   0.523770740   0.500000000
B        0.047677843   0.666651496   0.500000000
B        0.047939873   0.809629069   0.500000000
B        0.047709719   0.952292607   0.500000000
B        0.189875414   0.094284768   0.500000000
B        0.189155138   0.236442302   0.500000000
B        0.190031034   0.380745407   0.500000000
B        0.189480059   0.523740149   0.500000000
B        0.189678143   0.666788167   0.500000000
B        0.190378964   0.809622281   0.500000000
B        0.190372259   0.952061573   0.500000000
B        0.333169115   0.094248110   0.500000000
B        0.332552319   0.235899530   0.500000000
B        0.331305627   0.377100615   0.500000000
B        0.332338389   0.525246572   0.500000000
B        0.331934276   0.668065308   0.500000000
B        0.333212124   0.810322886   0.500000000
B        0.333348838   0.952323186   0.500000000
B        0.476231091   0.095097932   0.500000000
B        0.475999724   0.237616097   0.500000000
B        0.474741524   0.379463380   0.500000000
C2       0.477580986   0.522418260   0.500000000
B        0.474753317   0.667660762   0.500000000
B        0.476260268   0.810520434   0.500000000
B        0.476229146   0.952790126   0.500000000
B        0.618966189   0.095276880   0.500000000
B        0.618985681   0.237994002   0.500000000
B        0.619054910   0.380945006   0.500000000
B        0.620536518   0.525258791   0.500000000
B        0.622899759   0.668694314   0.500000000
B        0.619255166   0.809968623   0.500000000
B        0.619090531   0.952719711   0.500000000
B        0.761859884   0.095312114   0.500000000
B        0.761826300   0.238173185   0.500000000
B        0.762005437   0.381013692   0.500000000
B        0.762383272   0.523999979   0.500000000
B        0.764099188   0.667446797   0.500000000
B        0.763556223   0.810844025   0.500000000
B        0.762231676   0.952682997   0.500000000
B        0.904820550   0.095180260   0.500000000
B        0.904688155   0.238139913   0.500000000
B        0.904723097   0.381033073   0.500000000
B        0.904901794   0.523768234   0.500000000
B        0.905750977   0.666830205   0.500000000
B        0.905714567   0.810124725   0.500000000
B        0.905328489   0.952742026   0.500000000
N        0.094937751   0.047177820   0.500000000
N        0.094390655   0.189593109   0.500000000
N        0.094855778   0.333129977   0.500000000
N        0.094524090   0.476048143   0.500000000
N        0.094737411   0.618920926   0.500000000
N        0.095293280   0.761890923   0.500000000
N        0.095317569   0.904680121   0.500000000
N        0.237932949   0.047050391   0.500000000
N        0.237229501   0.189136485   0.500000000
N        0.236487834   0.331418661   0.500000000
N        0.237060576   0.476254871   0.500000000
N        0.236786552   0.619240427   0.500000000
N        0.237868818   0.762130178   0.500000000
N        0.238108082   0.904705245   0.500000000
N        0.381096363   0.047310507   0.500000000
N        0.380899298   0.189215709   0.500000000
N        0.379849158   0.330148931   0.500000000
C1       0.382789564   0.475904858   0.500000000
N        0.378908989   0.621089889   0.500000000
N        0.380759211   0.763212680   0.500000000
N        0.381079141   0.905262060   0.500000000
N        0.523913060   0.047835338   0.500000000
N        0.523865708   0.190456131   0.500000000
N        0.523611300   0.333486997   0.500000000
N        0.523091891   0.476907857   0.500000000
C3       0.524096298   0.617210995   0.500000000
N        0.523745885   0.762939477   0.500000000
N        0.523952689   0.905476282   0.500000000
N        0.666690704   0.047859099   0.500000000
N        0.666606853   0.190559085   0.500000000
N        0.666540054   0.333460263   0.500000000
N        0.666513419   0.476388972   0.500000000
N        0.669852429   0.620151413   0.500000000
N        0.668582652   0.763512806   0.500000000
N        0.666871082   0.905144606   0.500000000
N        0.809605349   0.047790815   0.500000000
N        0.809438862   0.190560843   0.500000000
N        0.809441093   0.333393677   0.500000000
N        0.809544508   0.476135294   0.500000000
N        0.810785316   0.619101538   0.500000000
N        0.810864247   0.762770891   0.500000000
N        0.810406719   0.905608448   0.500000000
N        0.952393105   0.047604408   0.500000000
N        0.952208353   0.190394191   0.500000000
N        0.952141057   0.333310031   0.500000000
N        0.952164986   0.476088014   0.500000000
N        0.952689383   0.618904184   0.500000000
N        0.952948609   0.762066547   0.500000000
N        0.952820058   0.905060081   0.500000000


K_POINTS gamma 

CELL_PARAMETERS alat
   1.001038472   0.000196147   0.000000000
  -0.500349367   0.867022747   0.000000000
   0.000000000   0.000000000   1.137203616


OCCUPATIONS
  1.0 1.0 1.0 1.0 1.0 1.0 1.0 1.0
  1.0 1.0 1.0 1.0 1.0 1.0 1.0 1.0
  1.0 1.0 1.0 1.0 1.0 1.0 1.0 1.0
  1.0 1.0 1.0 1.0 1.0 1.0 1.0 1.0
  1.0 1.0 1.0 1.0 1.0 1.0 1.0 1.0
  1.0 1.0 1.0 1.0 1.0 1.0 1.0 1.0
  1.0 1.0 1.0 1.0 1.0 1.0 1.0 1.0
  1.0 1.0 1.0 1.0 1.0 1.0 1.0 1.0
  1.0 1.0 1.0 1.0 1.0 1.0 1.0 1.0
  1.0 1.0 1.0 1.0 1.0 1.0 1.0 1.0
  1.0 1.0 1.0 1.0 1.0 1.0 1.0 1.0
  1.0 1.0 1.0 1.0 1.0 1.0 1.0 1.0
  1.0 1.0 1.0 1.0 1.0 1.0 1.0 1.0
  1.0 1.0 1.0 1.0 1.0 1.0 1.0 1.0
  1.0 1.0 1.0 1.0 1.0 1.0 1.0 1.0
  1.0 1.0 1.0 1.0 1.0 1.0 1.0 1.0
  1.0 1.0 1.0 1.0 1.0 1.0 1.0 1.0
  1.0 1.0 1.0 1.0 1.0 1.0 1.0 1.0
  1.0 1.0 1.0 1.0 1.0 1.0 1.0 1.0
  1.0 1.0 1.0 1.0 1.0 1.0 1.0 1.0
  1.0 1.0 1.0 1.0 1.0 1.0 1.0 1.0
  1.0 1.0 1.0 1.0 1.0 1.0 1.0 1.0
  1.0 1.0 1.0 1.0 1.0 1.0 1.0 1.0
  1.0 1.0 1.0 1.0 1.0 1.0 1.0 1.0
  1.0 1.0 1.0 1.0 0.0 0.0 0.0 0.0
  0.0 0.0 0.0 0.0 0.0 0.0 0.0 0.0
  0.0 0.0 0.0 0.0 0.0 0.0 0.0 0.0
  0.0 0.0 0.0 0.0 0.0 0.0 0.0 0.0
  0.0 0.0 0.0 0.0 0.0 0.0 0.0 0.0
  0.0 0.0 0.0 0.0 0.0 0.0 0.0 0.0
  0.0 0.0 0.0 0.0 0.0
  1.0 1.0 1.0 1.0 1.0 1.0 1.0 1.0
  1.0 1.0 1.0 1.0 1.0 1.0 1.0 1.0
  1.0 1.0 1.0 1.0 1.0 1.0 1.0 1.0
  1.0 1.0 1.0 1.0 1.0 1.0 1.0 1.0
  1.0 1.0 1.0 1.0 1.0 1.0 1.0 1.0
  1.0 1.0 1.0 1.0 1.0 1.0 1.0 1.0
  1.0 1.0 1.0 1.0 1.0 1.0 1.0 1.0
  1.0 1.0 1.0 1.0 1.0 1.0 1.0 1.0
  1.0 1.0 1.0 1.0 1.0 1.0 1.0 1.0
  1.0 1.0 1.0 1.0 1.0 1.0 1.0 1.0
  1.0 1.0 1.0 1.0 1.0 1.0 1.0 1.0
  1.0 1.0 1.0 1.0 1.0 1.0 1.0 1.0
  1.0 1.0 1.0 1.0 1.0 1.0 1.0 1.0
  1.0 1.0 1.0 1.0 1.0 1.0 1.0 1.0
  1.0 1.0 1.0 1.0 1.0 1.0 1.0 1.0
  1.0 1.0 1.0 1.0 1.0 1.0 1.0 1.0
  1.0 1.0 1.0 1.0 1.0 1.0 1.0 1.0
  1.0 1.0 1.0 1.0 1.0 1.0 1.0 1.0
  1.0 1.0 1.0 1.0 1.0 1.0 1.0 1.0
  1.0 1.0 1.0 1.0 1.0 1.0 1.0 1.0
  1.0 1.0 1.0 1.0 1.0 1.0 1.0 1.0
  1.0 1.0 1.0 1.0 1.0 1.0 1.0 1.0
  1.0 1.0 1.0 1.0 1.0 1.0 1.0 1.0
  1.0 1.0 1.0 1.0 1.0 1.0 1.0 1.0
  1.0 1.0 0.0 0.0 1.0 0.0 0.0 0.0
  0.0 0.0 0.0 0.0 0.0 0.0 0.0 0.0
  0.0 0.0 0.0 0.0 0.0 0.0 0.0 0.0
  0.0 0.0 0.0 0.0 0.0 0.0 0.0 0.0
  0.0 0.0 0.0 0.0 0.0 0.0 0.0 0.0
  0.0 0.0 0.0 0.0 0.0 0.0 0.0 0.0
  0.0 0.0 0.0 0.0 0.0
  
