&CONTROL
	calculation = 'vc-relax'
	restart_mode = 'from_scratch'
	prefix = 'C2Cn'
	pseudo_dir ='./pseudo/'
	outdir='./TMP_DIR/'
	etot_conv_thr = 1.0E-5		
	forc_conv_thr = 1.94E-4
	tstress = .true.		
/
&SYSTEM
	ibrav = 0,
	celldm(1) = 33.23461096
	nat= 98,
	ntyp= 5,
	ecutwfc = 40.0
	nbnd = 245
	occupations = 'from_input' 
	nspin = 2,			! required for spin polarized calc
	starting_magnetization(3) = 1
	vdw_corr = 'Grimme-D3'
/
&ELECTRONS
	diagonalization = 'cg'
	conv_thr = 1.0E-8		! get to -12
/
&IONS
	ion_dynamics="bfgs"
/
&CELL
	cell_dofree = "2Dxy"
	cell_dynamics = 'bfgs'
	press = 0.0
	press_conv_thr = 0.1
	cell_factor = 4.0
/

ATOMIC_SPECIES
  B  10 B.pbe-n-kjpaw_psl.1.0.0.UPF
  N  14 N.pbe-n-kjpaw_psl.1.0.0.UPF
  C1 12 C.pbe-n-kjpaw_psl.1.0.0.UPF
  C2 12 C.pbe-n-kjpaw_psl.1.0.0.UPF
  C3 12 C.pbe-n-kjpaw_psl.1.0.0.UPF

ATOMIC_POSITIONS {crystal}
B        0.047306362   0.094758980   0.500000000
B        0.047400609   0.237818253   0.500000000
B        0.047341337   0.380872884   0.500000000
B        0.047185718   0.523773552   0.500000000
B        0.047577287   0.666678338   0.500000000
B        0.047839536   0.809664590   0.500000000
B        0.047670272   0.952329850   0.500000000
B        0.189937226   0.094405866   0.500000000
B        0.189321801   0.236621179   0.500000000
B        0.190209545   0.380876176   0.500000000
B        0.189558597   0.523726531   0.500000000
B        0.189585126   0.666808106   0.500000000
B        0.190287721   0.809712353   0.500000000
B        0.190335530   0.952160628   0.500000000
B        0.333216774   0.094392480   0.500000000
B        0.332799724   0.236238609   0.500000000
B        0.331825965   0.377630157   0.500000000
B        0.332485622   0.525103752   0.500000000
B        0.331874850   0.668125069   0.500000000
B        0.333191884   0.810414936   0.500000000
B        0.333321701   0.952422852   0.500000000
B        0.476270118   0.095166342   0.500000000
B        0.476177332   0.237760046   0.500000000
B        0.475214656   0.379893181   0.500000000
C2       0.477282429   0.522717601   0.500000000
B        0.474896119   0.667514316   0.500000000
B        0.476273456   0.810441495   0.500000000
B        0.476226436   0.952814379   0.500000000
B        0.619002405   0.095247020   0.500000000
B        0.619050051   0.237945343   0.500000000
B        0.619147537   0.380852280   0.500000000
B        0.620106651   0.524785168   0.500000000
B        0.622369774   0.668174041   0.500000000
B        0.619123776   0.809790433   0.500000000
B        0.619127066   0.952658762   0.500000000
B        0.761874924   0.095266666   0.500000000
B        0.761871680   0.238128334   0.500000000
B        0.762054599   0.380949847   0.500000000
B        0.762239882   0.523822538   0.500000000
B        0.763761255   0.667200141   0.500000000
B        0.763378642   0.810678175   0.500000000
B        0.762181778   0.952599530   0.500000000
B        0.904834442   0.095165691   0.500000000
B        0.904733432   0.238125136   0.500000000
B        0.904753035   0.380997545   0.500000000
B        0.904833726   0.523729826   0.500000000
B        0.905607571   0.666783211   0.500000000
B        0.905594300   0.810062904   0.500000000
B        0.905241204   0.952693812   0.500000000
N        0.094965372   0.047263889   0.500000000
N        0.094505344   0.189703336   0.500000000
N        0.094963683   0.333181508   0.500000000
N        0.094606353   0.476073418   0.500000000
N        0.094655982   0.618938060   0.500000000
N        0.095218582   0.761938572   0.500000000
N        0.095261132   0.904738876   0.500000000
N        0.237953160   0.047155997   0.500000000
N        0.237366170   0.189322142   0.500000000
N        0.236740159   0.331665613   0.500000000
N        0.237135231   0.476294214   0.500000000
N        0.236758862   0.619296715   0.500000000
N        0.237821887   0.762178009   0.500000000
N        0.238061408   0.904781419   0.500000000
N        0.381104433   0.047400938   0.500000000
N        0.380987973   0.189387711   0.500000000
N        0.380116118   0.330466077   0.500000000
C1       0.383176780   0.476309810   0.500000000
N        0.378850815   0.621149112   0.500000000
N        0.380703210   0.763241039   0.500000000
N        0.381061902   0.905344048   0.500000000
N        0.523922895   0.047831006   0.500000000
N        0.523940616   0.190454936   0.500000000
N        0.523785951   0.333440277   0.500000000
N        0.523316068   0.476683793   0.500000000
C3       0.523690078   0.616823054   0.500000000
N        0.523705816   0.762864712   0.500000000
N        0.523926626   0.905393731   0.500000000
N        0.666700447   0.047800520   0.500000000
N        0.666667402   0.190491264   0.500000000
N        0.666645315   0.333354670   0.500000000
N        0.666559685   0.476214085   0.500000000
N        0.669533915   0.619883936   0.500000000
N        0.668334377   0.763259788   0.500000000
N        0.666818542   0.905036288   0.500000000
N        0.809597267   0.047729752   0.500000000
N        0.809487848   0.190512238   0.500000000
N        0.809508810   0.333332657   0.500000000
N        0.809545111   0.476059437   0.500000000
N        0.810612256   0.619012031   0.500000000
N        0.810677763   0.762633721   0.500000000
N        0.810296631   0.905494582   0.500000000
N        0.952392438   0.047607578   0.500000000
N        0.952270309   0.190402796   0.500000000
N        0.952199570   0.333299645   0.500000000
N        0.952169111   0.476077149   0.500000000
N        0.952599080   0.618895555   0.500000000
N        0.952843963   0.762046800   0.500000000
N        0.952736085   0.905034599   0.500000000

K_POINTS gamma 

CELL_PARAMETERS alat
   1.001012075   0.000086770   0.000000000
  -0.500430892   0.866945278   0.000000000
   0.000000000   0.000000000   1.137203616


OCCUPATIONS
  1.0 1.0 1.0 1.0 1.0 1.0 1.0 1.0
  1.0 1.0 1.0 1.0 1.0 1.0 1.0 1.0
  1.0 1.0 1.0 1.0 1.0 1.0 1.0 1.0
  1.0 1.0 1.0 1.0 1.0 1.0 1.0 1.0
  1.0 1.0 1.0 1.0 1.0 1.0 1.0 1.0
  1.0 1.0 1.0 1.0 1.0 1.0 1.0 1.0
  1.0 1.0 1.0 1.0 1.0 1.0 1.0 1.0
  1.0 1.0 1.0 1.0 1.0 1.0 1.0 1.0
  1.0 1.0 1.0 1.0 1.0 1.0 1.0 1.0
  1.0 1.0 1.0 1.0 1.0 1.0 1.0 1.0
  1.0 1.0 1.0 1.0 1.0 1.0 1.0 1.0
  1.0 1.0 1.0 1.0 1.0 1.0 1.0 1.0
  1.0 1.0 1.0 1.0 1.0 1.0 1.0 1.0
  1.0 1.0 1.0 1.0 1.0 1.0 1.0 1.0
  1.0 1.0 1.0 1.0 1.0 1.0 1.0 1.0
  1.0 1.0 1.0 1.0 1.0 1.0 1.0 1.0
  1.0 1.0 1.0 1.0 1.0 1.0 1.0 1.0
  1.0 1.0 1.0 1.0 1.0 1.0 1.0 1.0
  1.0 1.0 1.0 1.0 1.0 1.0 1.0 1.0
  1.0 1.0 1.0 1.0 1.0 1.0 1.0 1.0
  1.0 1.0 1.0 1.0 1.0 1.0 1.0 1.0
  1.0 1.0 1.0 1.0 1.0 1.0 1.0 1.0
  1.0 1.0 1.0 1.0 1.0 1.0 1.0 1.0
  1.0 1.0 1.0 1.0 1.0 1.0 1.0 1.0
  1.0 1.0 0.0 1.0 1.0 0.0 0.0 0.0
  0.0 0.0 0.0 0.0 0.0 0.0 0.0 0.0
  0.0 0.0 0.0 0.0 0.0 0.0 0.0 0.0
  0.0 0.0 0.0 0.0 0.0 0.0 0.0 0.0
  0.0 0.0 0.0 0.0 0.0 0.0 0.0 0.0
  0.0 0.0 0.0 0.0 0.0 0.0 0.0 0.0
  0.0 0.0 0.0 0.0 0.0
  1.0 1.0 1.0 1.0 1.0 1.0 1.0 1.0
  1.0 1.0 1.0 1.0 1.0 1.0 1.0 1.0
  1.0 1.0 1.0 1.0 1.0 1.0 1.0 1.0
  1.0 1.0 1.0 1.0 1.0 1.0 1.0 1.0
  1.0 1.0 1.0 1.0 1.0 1.0 1.0 1.0
  1.0 1.0 1.0 1.0 1.0 1.0 1.0 1.0
  1.0 1.0 1.0 1.0 1.0 1.0 1.0 1.0
  1.0 1.0 1.0 1.0 1.0 1.0 1.0 1.0
  1.0 1.0 1.0 1.0 1.0 1.0 1.0 1.0
  1.0 1.0 1.0 1.0 1.0 1.0 1.0 1.0
  1.0 1.0 1.0 1.0 1.0 1.0 1.0 1.0
  1.0 1.0 1.0 1.0 1.0 1.0 1.0 1.0
  1.0 1.0 1.0 1.0 1.0 1.0 1.0 1.0
  1.0 1.0 1.0 1.0 1.0 1.0 1.0 1.0
  1.0 1.0 1.0 1.0 1.0 1.0 1.0 1.0
  1.0 1.0 1.0 1.0 1.0 1.0 1.0 1.0
  1.0 1.0 1.0 1.0 1.0 1.0 1.0 1.0
  1.0 1.0 1.0 1.0 1.0 1.0 1.0 1.0
  1.0 1.0 1.0 1.0 1.0 1.0 1.0 1.0
  1.0 1.0 1.0 1.0 1.0 1.0 1.0 1.0
  1.0 1.0 1.0 1.0 1.0 1.0 1.0 1.0
  1.0 1.0 1.0 1.0 1.0 1.0 1.0 1.0
  1.0 1.0 1.0 1.0 1.0 1.0 1.0 1.0
  1.0 1.0 1.0 1.0 1.0 1.0 1.0 1.0
  1.0 1.0 1.0 0.0 0.0 0.0 0.0 0.0
  0.0 0.0 0.0 0.0 0.0 0.0 0.0 0.0
  0.0 0.0 0.0 0.0 0.0 0.0 0.0 0.0
  0.0 0.0 0.0 0.0 0.0 0.0 0.0 0.0
  0.0 0.0 0.0 0.0 0.0 0.0 0.0 0.0
  0.0 0.0 0.0 0.0 0.0 0.0 0.0 0.0
  0.0 0.0 0.0 0.0 0.0
  
