&CONTROL
	calculation = 'vc-relax'
	restart_mode = 'from_scratch'
	prefix = 'hBN'
	pseudo_dir ='./pseudo/'
	outdir='./TMP_DIR/'
	forc_conv_thr = 1.945E-6 ! 1 a.u. = 51.421 eV/A
/
&SYSTEM
	ibrav = 0,
	celldm(1) = 33.23461096
	nat= 98,
	ntyp= 2,
	ecutwfc = 40.0, 
	ecutrho = 500,
	vdw_corr = 'Grimme-D3'
/
&ELECTRONS
	diagonalization = 'cg'
/
&IONS
	ion_dynamics="bfgs"
/
&CELL
	cell_dofree = "2Dxy"
	cell_dynamics = 'bfgs'
	press = 0.0
	press_conv_thr = 0.5
/
ATOMIC_SPECIES
  B 10 B.pbe-n-kjpaw_psl.1.0.0.UPF
  N 14 N.pbe-n-kjpaw_psl.1.0.0.UPF
 
ATOMIC_POSITIONS {crystal}
B        0.047623642   0.095247284   0.500000000
B        0.047618735   0.238098767   0.500000000
B        0.047620814   0.380944628   0.500000000
B        0.047624326   0.523812664   0.500000000
B        0.047620814   0.666676187   0.500000000
B        0.047618735   0.809519969   0.500000000
B        0.047623642   0.952376358   0.500000000
B        0.190487970   0.095243986   0.500000000
B        0.190480031   0.238098767   0.500000000
B        0.190475571   0.380951143   0.500000000
B        0.190485069   0.523812966   0.500000000
B        0.190485069   0.666673104   0.500000000
B        0.190475571   0.809524429   0.500000000
B        0.190480031   0.952381265   0.500000000
B        0.333331456   0.095242258   0.500000000
B        0.333331456   0.238089198   0.500000000
B        0.333323813   0.380944628   0.500000000
B        0.333326896   0.523812966   0.500000000
B        0.333333000   0.666667000   0.500000000
B        0.333326896   0.809514931   0.500000000
B        0.333323813   0.952379186   0.500000000
B        0.476187454   0.095246414   0.500000000
B        0.476187122   0.238093561   0.500000000
B        0.476187454   0.380941040   0.500000000
B        0.476187336   0.523812664   0.500000000
B        0.476187034   0.666673104   0.500000000
B        0.476187034   0.809514931   0.500000000
B        0.476187336   0.952375674   0.500000000
B        0.619058960   0.095246414   0.500000000
B        0.619051004   0.238101008   0.500000000
B        0.619051004   0.380948996   0.500000000
B        0.619058960   0.523812546   0.500000000
B        0.619055372   0.666676187   0.500000000
B        0.619048857   0.809524429   0.500000000
B        0.619055372   0.952379186   0.500000000
B        0.761910802   0.095242258   0.500000000
B        0.761906439   0.238093561   0.500000000
B        0.761898992   0.380948996   0.500000000
B        0.761906439   0.523812878   0.500000000
B        0.761910802   0.666668544   0.500000000
B        0.761901233   0.809519969   0.500000000
B        0.761901233   0.952381265   0.500000000
B        0.904756014   0.095243986   0.500000000
B        0.904757742   0.238089198   0.500000000
B        0.904753586   0.380941040   0.500000000
B        0.904753586   0.523812546   0.500000000
B        0.904757742   0.666668544   0.500000000
B        0.904756014   0.809512030   0.500000000
B        0.904752716   0.952376358   0.500000000
N        0.095242747   0.047621373   0.500000000
N        0.095241045   0.190482089   0.500000000
N        0.095240125   0.333332350   0.500000000
N        0.095242444   0.476189089   0.500000000
N        0.095242444   0.619053355   0.500000000
N        0.095240125   0.761907775   0.500000000
N        0.095241045   0.904758955   0.500000000
N        0.238097157   0.047619143   0.500000000
N        0.238097157   0.190478014   0.500000000
N        0.238092225   0.333332350   0.500000000
N        0.238094565   0.476189130   0.500000000
N        0.238098251   0.619049625   0.500000000
N        0.238094565   0.761905435   0.500000000
N        0.238092225   0.904759875   0.500000000
N        0.380948389   0.047620016   0.500000000
N        0.380951558   0.190475779   0.500000000
N        0.380948389   0.333328373   0.500000000
N        0.380946645   0.476189089   0.500000000
N        0.380950375   0.619049625   0.500000000
N        0.380950375   0.761901749   0.500000000
N        0.380946645   0.904757556   0.500000000
N        0.523811219   0.047621439   0.500000000
N        0.523811192   0.190480421   0.500000000
N        0.523811192   0.333329771   0.500000000
N        0.523811219   0.476188781   0.500000000
N        0.523810911   0.619053355   0.500000000
N        0.523810870   0.761905435   0.500000000
N        0.523810911   0.904757556   0.500000000
N        0.666671627   0.047620016   0.500000000
N        0.666670229   0.190480421   0.500000000
N        0.666667000   0.333333000   0.500000000
N        0.666670229   0.476188808   0.500000000
N        0.666671627   0.619051611   0.500000000
N        0.666667650   0.761907775   0.500000000
N        0.666667650   0.904759875   0.500000000
N        0.809521986   0.047619143   0.500000000
N        0.809524221   0.190475779   0.500000000
N        0.809519579   0.333329771   0.500000000
N        0.809519579   0.476188808   0.500000000
N        0.809524221   0.619048442   0.500000000
N        0.809521986   0.761902843   0.500000000
N        0.809517911   0.904758955   0.500000000
N        0.952378627   0.047621373   0.500000000
N        0.952380857   0.190478014   0.500000000
N        0.952379984   0.333328373   0.500000000
N        0.952378561   0.476188781   0.500000000
N        0.952379984   0.619051611   0.500000000
N        0.952380857   0.761902843   0.500000000
N        0.952378627   0.904757253   0.500000000

K_POINTS gamma

CELL_PARAMETERS alat
   0.999339969   0.000000000   0.000000000
  -0.499669984   0.865453800   0.000000000
   0.000000000   0.000000000   1.137203616

