&CONTROL
	calculation = 'scf'
	restart_mode = 'from_scratch'
	prefix = 'C2Cn'
	pseudo_dir ='./pseudo/'
	outdir='./TMP_DIR/'
/
&SYSTEM
	ibrav = 0,
	celldm(1) = 33.23461096
	nat= 98,
	ntyp= 5,
	ecutwfc = 25.73
	nbnd = 245,
	occupations = 'from_input' 
	nspin = 2
	starting_magnetization(3) = 1
	input_dft='hse', nqx1 = 1, nqx2 = 1, nqx3 = 1, 	! HSE06
    	x_gamma_extrapolation = .true.,
    	exxdiv_treatment = 'gygi-baldereschi',
    	nosym = .true., noinv = .true
	vdw_corr = 'Grimme-D3'
	exx_fraction = 0.32
	screening_parameter = 0.0455 
/
&ELECTRONS
	diagonalization = 'cg'
	conv_thr = 1.0E-3	
/
ATOMIC_SPECIES
  B  10 B.pbe-n-kjpaw_psl.1.0.0.UPF
  N  14 N.pbe-n-kjpaw_psl.1.0.0.UPF
  C1 12 C.pbe-n-kjpaw_psl.1.0.0.UPF
  C2 12 C.pbe-n-kjpaw_psl.1.0.0.UPF
  C3 12 C.pbe-n-kjpaw_psl.1.0.0.UPF

ATOMIC_POSITIONS (crystal)
B        0.047370201   0.094774878   0.500000000
B        0.047562439   0.237851158   0.500000000
B        0.047477454   0.381063160   0.500000000
B        0.047185726   0.523844580   0.500000000
B        0.047455767   0.666696122   0.500000000
B        0.047765916   0.809662844   0.500000000
B        0.047658346   0.952341549   0.500000000
B        0.190064591   0.094520075   0.500000000
B        0.189528569   0.236867484   0.500000000
B        0.190409931   0.380789072   0.500000000
B        0.189489961   0.524311095   0.500000000
B        0.189458106   0.667033331   0.500000000
B        0.190229235   0.809770473   0.500000000
B        0.190336976   0.952233870   0.500000000
B        0.333361407   0.094595815   0.500000000
B        0.333039186   0.236311491   0.500000000
B        0.331783479   0.377246499   0.500000000
B        0.332580654   0.526923663   0.500000000
B        0.331611153   0.668388681   0.500000000
B        0.332966394   0.810541644   0.500000000
B        0.333303667   0.952544053   0.500000000
B        0.476323435   0.095158418   0.500000000
B        0.476434104   0.237858729   0.500000000
B        0.476519529   0.380812646   0.500000000
C2       0.477770552   0.522228406   0.500000000
B        0.473076448   0.667419318   0.500000000
B        0.475688723   0.810509976   0.500000000
B        0.476155264   0.952814213   0.500000000
B        0.619009665   0.095163166   0.500000000
B        0.619229487   0.237932969   0.500000000
B        0.619317829   0.380682336   0.500000000
B        0.619187536   0.523480726   0.500000000
B        0.622753232   0.668216683   0.500000000
B        0.619210763   0.809590154   0.500000000
B        0.618936685   0.952522594   0.500000000
B        0.761915740   0.095149810   0.500000000
B        0.761967768   0.238032376   0.500000000
B        0.762067225   0.380770665   0.500000000
B        0.762141396   0.523566096   0.500000000
B        0.763688370   0.666960967   0.500000000
B        0.763132382   0.810471547   0.500000000
B        0.762148710   0.952437622   0.500000000
B        0.904885038   0.095114961   0.500000000
B        0.904850277   0.238084252   0.500000000
B        0.904836952   0.380990342   0.500000000
B        0.904841610   0.523676564   0.500000000
B        0.905404067   0.666638578   0.500000000
B        0.905479750   0.809935405   0.500000000
B        0.905225030   0.952629806   0.500000000
N        0.095031139   0.047334097   0.500000000
N        0.094646141   0.189798720   0.500000000
N        0.095347609   0.333408304   0.500000000
N        0.094611257   0.476195423   0.500000000
N        0.094548276   0.619006300   0.500000000
N        0.095084190   0.761985038   0.500000000
N        0.095213493   0.904786361   0.500000000
N        0.238001827   0.047313233   0.500000000
N        0.237653359   0.189610660   0.500000000
N        0.236943091   0.331802919   0.500000000
N        0.237739662   0.476901696   0.500000000
N        0.236411403   0.619462492   0.500000000
N        0.237630607   0.762369029   0.500000000
N        0.238014700   0.904915551   0.500000000
N        0.381123784   0.047487215   0.500000000
N        0.381074519   0.189486162   0.500000000
N        0.380437522   0.331032153   0.500000000
C1       0.384280715   0.477209882   0.500000000
N        0.378181819   0.621817788   0.500000000
N        0.380537123   0.763588382   0.500000000
N        0.380993423   0.905451559   0.500000000
N        0.523938542   0.047803040   0.500000000
N        0.524024732   0.190395316   0.500000000
N        0.524121372   0.333269300   0.500000000
N        0.524177113   0.475823140   0.500000000
C3       0.522790673   0.615720373   0.500000000
N        0.523098162   0.762260443   0.500000000
N        0.523804373   0.905388781   0.500000000
N        0.666672521   0.047592333   0.500000000
N        0.666773822   0.190334549   0.500000000
N        0.666899915   0.333100319   0.500000000
N        0.666730830   0.475878852   0.500000000
N        0.668968010   0.619562644   0.500000000
N        0.668197102   0.763057223   0.500000000
N        0.666591657   0.904652653   0.500000000
N        0.809594740   0.047587715   0.500000000
N        0.809590670   0.190409497   0.500000000
N        0.809665659   0.333226341   0.500000000
N        0.809604802   0.475975393   0.500000000
N        0.810513827   0.618925547   0.500000000
N        0.810389384   0.762346830   0.500000000
N        0.810201343   0.905354095   0.500000000
N        0.952425757   0.047574361   0.500000000
N        0.952412481   0.190405345   0.500000000
N        0.952407861   0.333327497   0.500000000
N        0.952197022   0.476061411   0.500000000
N        0.952512686   0.618876126   0.500000000
N        0.952686657   0.761998127   0.500000000
N        0.952665905   0.904968925   0.500000000

K_POINTS gamma

CELL_PARAMETERS alat
   1.001327499  -0.000545336   0.000000000
  -0.501136021   0.866902382   0.000000000
   0.000000000   0.000000000   1.137203616

OCCUPATIONS
  1.0 1.0 1.0 1.0 1.0 1.0 1.0 1.0
  1.0 1.0 1.0 1.0 1.0 1.0 1.0 1.0
  1.0 1.0 1.0 1.0 1.0 1.0 1.0 1.0
  1.0 1.0 1.0 1.0 1.0 1.0 1.0 1.0
  1.0 1.0 1.0 1.0 1.0 1.0 1.0 1.0
  1.0 1.0 1.0 1.0 1.0 1.0 1.0 1.0
  1.0 1.0 1.0 1.0 1.0 1.0 1.0 1.0
  1.0 1.0 1.0 1.0 1.0 1.0 1.0 1.0
  1.0 1.0 1.0 1.0 1.0 1.0 1.0 1.0
  1.0 1.0 1.0 1.0 1.0 1.0 1.0 1.0
  1.0 1.0 1.0 1.0 1.0 1.0 1.0 1.0
  1.0 1.0 1.0 1.0 1.0 1.0 1.0 1.0
  1.0 1.0 1.0 1.0 1.0 1.0 1.0 1.0
  1.0 1.0 1.0 1.0 1.0 1.0 1.0 1.0
  1.0 1.0 1.0 1.0 1.0 1.0 1.0 1.0
  1.0 1.0 1.0 1.0 1.0 1.0 1.0 1.0
  1.0 1.0 1.0 1.0 1.0 1.0 1.0 1.0
  1.0 1.0 1.0 1.0 1.0 1.0 1.0 1.0
  1.0 1.0 1.0 1.0 1.0 1.0 1.0 1.0
  1.0 1.0 1.0 1.0 1.0 1.0 1.0 1.0
  1.0 1.0 1.0 1.0 1.0 1.0 1.0 1.0
  1.0 1.0 1.0 1.0 1.0 1.0 1.0 1.0
  1.0 1.0 1.0 1.0 1.0 1.0 1.0 1.0
  1.0 1.0 1.0 1.0 1.0 1.0 1.0 1.0
  1.0 1.0 1.0 0.0 1.0 0.0 0.0 0.0
  0.0 0.0 0.0 0.0 0.0 0.0 0.0 0.0
  0.0 0.0 0.0 0.0 0.0 0.0 0.0 0.0
  0.0 0.0 0.0 0.0 0.0 0.0 0.0 0.0
  0.0 0.0 0.0 0.0 0.0 0.0 0.0 0.0
  0.0 0.0 0.0 0.0 0.0 0.0 0.0 0.0
  0.0 0.0 0.0 0.0 0.0
  1.0 1.0 1.0 1.0 1.0 1.0 1.0 1.0
  1.0 1.0 1.0 1.0 1.0 1.0 1.0 1.0
  1.0 1.0 1.0 1.0 1.0 1.0 1.0 1.0
  1.0 1.0 1.0 1.0 1.0 1.0 1.0 1.0
  1.0 1.0 1.0 1.0 1.0 1.0 1.0 1.0
  1.0 1.0 1.0 1.0 1.0 1.0 1.0 1.0
  1.0 1.0 1.0 1.0 1.0 1.0 1.0 1.0
  1.0 1.0 1.0 1.0 1.0 1.0 1.0 1.0
  1.0 1.0 1.0 1.0 1.0 1.0 1.0 1.0
  1.0 1.0 1.0 1.0 1.0 1.0 1.0 1.0
  1.0 1.0 1.0 1.0 1.0 1.0 1.0 1.0
  1.0 1.0 1.0 1.0 1.0 1.0 1.0 1.0
  1.0 1.0 1.0 1.0 1.0 1.0 1.0 1.0
  1.0 1.0 1.0 1.0 1.0 1.0 1.0 1.0
  1.0 1.0 1.0 1.0 1.0 1.0 1.0 1.0
  1.0 1.0 1.0 1.0 1.0 1.0 1.0 1.0
  1.0 1.0 1.0 1.0 1.0 1.0 1.0 1.0
  1.0 1.0 1.0 1.0 1.0 1.0 1.0 1.0
  1.0 1.0 1.0 1.0 1.0 1.0 1.0 1.0
  1.0 1.0 1.0 1.0 1.0 1.0 1.0 1.0
  1.0 1.0 1.0 1.0 1.0 1.0 1.0 1.0
  1.0 1.0 1.0 1.0 1.0 1.0 1.0 1.0
  1.0 1.0 1.0 1.0 1.0 1.0 1.0 1.0
  1.0 1.0 1.0 1.0 1.0 1.0 1.0 1.0
  1.0 1.0 1.0 0.0 0.0 0.0 0.0 0.0
  0.0 0.0 0.0 0.0 0.0 0.0 0.0 0.0
  0.0 0.0 0.0 0.0 0.0 0.0 0.0 0.0
  0.0 0.0 0.0 0.0 0.0 0.0 0.0 0.0
  0.0 0.0 0.0 0.0 0.0 0.0 0.0 0.0
  0.0 0.0 0.0 0.0 0.0 0.0 0.0 0.0
  0.0 0.0 0.0 0.0 0.0

   
