&CONTROL
	calculation = 'vc-relax'
	restart_mode = 'from_scratch'
	prefix = 'C2Cn'
	pseudo_dir ='./pseudo/'
	outdir='./TMP_DIR/'
	etot_conv_thr = 1.0E-6		
	forc_conv_thr = 1.94E-5
	tstress = .true.		
/
&SYSTEM
	ibrav = 0,
	celldm(1) = 33.23461096
	nat= 98,
	ntyp= 5,
	ecutwfc = 40.0
	nbnd = 245
	occupations = 'from_input' 
	nspin = 2,			! required for spin polarized calc
	starting_magnetization(3) = 1
	vdw_corr = 'Grimme-D3'
/
&ELECTRONS
	diagonalization = 'cg'
	conv_thr = 1.0E-10		! get to -12
/
&IONS
	ion_dynamics="bfgs"
/
&CELL
	cell_dofree = "2Dxy"
	cell_dynamics = 'bfgs'
	press = 0.0
	press_conv_thr = 0.1
	cell_factor = 4.0
/

ATOMIC_SPECIES
  B  10 B.pbe-n-kjpaw_psl.1.0.0.UPF
  N  14 N.pbe-n-kjpaw_psl.1.0.0.UPF
  C1 12 C.pbe-n-kjpaw_psl.1.0.0.UPF
  C2 12 C.pbe-n-kjpaw_psl.1.0.0.UPF
  C3 12 C.pbe-n-kjpaw_psl.1.0.0.UPF

ATOMIC_POSITIONS {crystal}
B        0.047239325   0.094634602   0.500000000
B        0.047297133   0.237728933   0.500000000
B        0.047253503   0.380904372   0.500000000
B        0.047176267   0.523750460   0.500000000
B        0.047664651   0.666636361   0.500000000
B        0.047933705   0.809613057   0.500000000
B        0.047716456   0.952282253   0.500000000
B        0.189889983   0.094267341   0.500000000
B        0.189080406   0.236346701   0.500000000
B        0.189962659   0.380644963   0.500000000
B        0.189379966   0.523719405   0.500000000
B        0.189694642   0.666808642   0.500000000
B        0.190385688   0.809614019   0.500000000
B        0.190386463   0.952065619   0.500000000
B        0.333194841   0.094290076   0.500000000
B        0.332568034   0.235893879   0.500000000
B        0.331014029   0.376694960   0.500000000
B        0.332089009   0.525217244   0.500000000
B        0.331933436   0.668066917   0.500000000
B        0.333191491   0.810305252   0.500000000
B        0.333363682   0.952335009   0.500000000
B        0.476243720   0.095125906   0.500000000
B        0.476012800   0.237660213   0.500000000
B        0.474997707   0.379723515   0.500000000
C2       0.477680020   0.522319632   0.500000000
B        0.474782892   0.667911485   0.500000000
B        0.476280584   0.810620229   0.500000000
B        0.476249819   0.952823446   0.500000000
B        0.618972206   0.095300400   0.500000000
B        0.619000171   0.238040266   0.500000000
B        0.619039290   0.380961124   0.500000000
B        0.620276786   0.525002474   0.500000000
B        0.623305365   0.668986097   0.500000000
B        0.619355236   0.810037770   0.500000000
B        0.619095729   0.952746423   0.500000000
B        0.761871697   0.095326696   0.500000000
B        0.761820660   0.238179143   0.500000000
B        0.761959738   0.380999949   0.500000000
B        0.762339891   0.523987460   0.500000000
B        0.764106618   0.667432480   0.500000000
B        0.763653962   0.810920164   0.500000000
B        0.762271024   0.952702590   0.500000000
B        0.904822636   0.095176555   0.500000000
B        0.904672793   0.238128060   0.500000000
B        0.904699292   0.381027914   0.500000000
B        0.904873889   0.523756514   0.500000000
B        0.905709752   0.666805317   0.500000000
B        0.905732494   0.810109906   0.500000000
B        0.905364698   0.952759818   0.500000000
N        0.094943485   0.047161309   0.500000000
N        0.094321648   0.189519673   0.500000000
N        0.094809842   0.333092782   0.500000000
N        0.094455717   0.476036623   0.500000000
N        0.094766308   0.618920582   0.500000000
N        0.095300932   0.761870672   0.500000000
N        0.095326558   0.904673738   0.500000000
N        0.237939381   0.047045586   0.500000000
N        0.237248116   0.189130548   0.500000000
N        0.236290777   0.331232754   0.500000000
N        0.236879797   0.476205220   0.500000000
N        0.236851468   0.619244647   0.500000000
N        0.237882093   0.762118379   0.500000000
N        0.238129601   0.904699229   0.500000000
N        0.381099553   0.047301749   0.500000000
N        0.380876946   0.189202385   0.500000000
N        0.379827313   0.330199228   0.500000000
C1       0.382248223   0.475593182   0.500000000
N        0.379002626   0.620997599   0.500000000
N        0.380755436   0.763148881   0.500000000
N        0.381079468   0.905233662   0.500000000
N        0.523918128   0.047847779   0.500000000
N        0.523860517   0.190447697   0.500000000
N        0.523627407   0.333438759   0.500000000
N        0.523316933   0.476683354   0.500000000
C3       0.524406528   0.617751707   0.500000000
N        0.523794333   0.763120343   0.500000000
N        0.523962966   0.905544172   0.500000000
N        0.666700264   0.047871731   0.500000000
N        0.666611679   0.190558483   0.500000000
N        0.666561769   0.333438423   0.500000000
N        0.666561591   0.476372877   0.500000000
N        0.669800962   0.620172503   0.500000000
N        0.668767080   0.763708954   0.500000000
N        0.666906858   0.905190278   0.500000000
N        0.809620299   0.047809353   0.500000000
N        0.809439081   0.190561177   0.500000000
N        0.809441468   0.333388247   0.500000000
N        0.809552029   0.476139392   0.500000000
N        0.810797382   0.619122691   0.500000000
N        0.810869567   0.762751546   0.500000000
N        0.810480678   0.905678785   0.500000000
N        0.952397839   0.047603165   0.500000000
N        0.952191191   0.190380021   0.500000000
N        0.952128295   0.333299467   0.500000000
N        0.952151741   0.476081526   0.500000000
N        0.952697782   0.618900264   0.500000000
N        0.952954332   0.762060419   0.500000000
N        0.952839166   0.905056846   0.500000000


K_POINTS gamma 

CELL_PARAMETERS alat
   1.001064597   0.000222792   0.000000000
  -0.500339356   0.867058841   0.000000000
   0.000000000   0.000000000   1.137203616

OCCUPATIONS
  1.0 1.0 1.0 1.0 1.0 1.0 1.0 1.0
  1.0 1.0 1.0 1.0 1.0 1.0 1.0 1.0
  1.0 1.0 1.0 1.0 1.0 1.0 1.0 1.0
  1.0 1.0 1.0 1.0 1.0 1.0 1.0 1.0
  1.0 1.0 1.0 1.0 1.0 1.0 1.0 1.0
  1.0 1.0 1.0 1.0 1.0 1.0 1.0 1.0
  1.0 1.0 1.0 1.0 1.0 1.0 1.0 1.0
  1.0 1.0 1.0 1.0 1.0 1.0 1.0 1.0
  1.0 1.0 1.0 1.0 1.0 1.0 1.0 1.0
  1.0 1.0 1.0 1.0 1.0 1.0 1.0 1.0
  1.0 1.0 1.0 1.0 1.0 1.0 1.0 1.0
  1.0 1.0 1.0 1.0 1.0 1.0 1.0 1.0
  1.0 1.0 1.0 1.0 1.0 1.0 1.0 1.0
  1.0 1.0 1.0 1.0 1.0 1.0 1.0 1.0
  1.0 1.0 1.0 1.0 1.0 1.0 1.0 1.0
  1.0 1.0 1.0 1.0 1.0 1.0 1.0 1.0
  1.0 1.0 1.0 1.0 1.0 1.0 1.0 1.0
  1.0 1.0 1.0 1.0 1.0 1.0 1.0 1.0
  1.0 1.0 1.0 1.0 1.0 1.0 1.0 1.0
  1.0 1.0 1.0 1.0 1.0 1.0 1.0 1.0
  1.0 1.0 1.0 1.0 1.0 1.0 1.0 1.0
  1.0 1.0 1.0 1.0 1.0 1.0 1.0 1.0
  1.0 1.0 1.0 1.0 1.0 1.0 1.0 1.0
  1.0 1.0 1.0 1.0 1.0 1.0 1.0 1.0
  1.0 1.0 1.0 1.0 1.0 0.0 0.0 0.0
  0.0 0.0 0.0 0.0 0.0 0.0 0.0 0.0
  0.0 0.0 0.0 0.0 0.0 0.0 0.0 0.0
  0.0 0.0 0.0 0.0 0.0 0.0 0.0 0.0
  0.0 0.0 0.0 0.0 0.0 0.0 0.0 0.0
  0.0 0.0 0.0 0.0 0.0 0.0 0.0 0.0
  0.0 0.0 0.0 0.0 0.0
  1.0 1.0 1.0 1.0 1.0 1.0 1.0 1.0
  1.0 1.0 1.0 1.0 1.0 1.0 1.0 1.0
  1.0 1.0 1.0 1.0 1.0 1.0 1.0 1.0
  1.0 1.0 1.0 1.0 1.0 1.0 1.0 1.0
  1.0 1.0 1.0 1.0 1.0 1.0 1.0 1.0
  1.0 1.0 1.0 1.0 1.0 1.0 1.0 1.0
  1.0 1.0 1.0 1.0 1.0 1.0 1.0 1.0
  1.0 1.0 1.0 1.0 1.0 1.0 1.0 1.0
  1.0 1.0 1.0 1.0 1.0 1.0 1.0 1.0
  1.0 1.0 1.0 1.0 1.0 1.0 1.0 1.0
  1.0 1.0 1.0 1.0 1.0 1.0 1.0 1.0
  1.0 1.0 1.0 1.0 1.0 1.0 1.0 1.0
  1.0 1.0 1.0 1.0 1.0 1.0 1.0 1.0
  1.0 1.0 1.0 1.0 1.0 1.0 1.0 1.0
  1.0 1.0 1.0 1.0 1.0 1.0 1.0 1.0
  1.0 1.0 1.0 1.0 1.0 1.0 1.0 1.0
  1.0 1.0 1.0 1.0 1.0 1.0 1.0 1.0
  1.0 1.0 1.0 1.0 1.0 1.0 1.0 1.0
  1.0 1.0 1.0 1.0 1.0 1.0 1.0 1.0
  1.0 1.0 1.0 1.0 1.0 1.0 1.0 1.0
  1.0 1.0 1.0 1.0 1.0 1.0 1.0 1.0
  1.0 1.0 1.0 1.0 1.0 1.0 1.0 1.0
  1.0 1.0 1.0 1.0 1.0 1.0 1.0 1.0
  1.0 1.0 1.0 1.0 1.0 1.0 1.0 1.0
  1.0 1.0 0.0 0.0 0.0 0.0 0.0 0.0
  0.0 0.0 0.0 0.0 0.0 0.0 0.0 0.0
  0.0 0.0 0.0 0.0 0.0 0.0 0.0 0.0
  0.0 0.0 0.0 0.0 0.0 0.0 0.0 0.0
  0.0 0.0 0.0 0.0 0.0 0.0 0.0 0.0
  0.0 0.0 0.0 0.0 0.0 0.0 0.0 0.0
  0.0 0.0 0.0 0.0 0.0
  
