&CONTROL
	calculation = 'vc-relax'
	restart_mode = 'from_scratch'
	prefix = 'hBN'
	pseudo_dir ='./pseudo/'
	outdir='./TMP_DIR/'
	forc_conv_thr = 1.945E-5 ! 1 a.u. = 51.421 eV/A
/
&SYSTEM
	ibrav = 0,
	celldm(1) = 33.23461096
	nat= 98,
	ntyp= 2,
	ecutwfc = 40.0, 
	ecutrho = 500,
	vdw_corr = 'Grimme-D3'
/
&ELECTRONS
	diagonalization = 'cg'
/
&IONS
	ion_dynamics="bfgs"
/
&CELL
	cell_dofree = "2Dxy"
	cell_dynamics = 'bfgs'
	press = 0.0
	press_conv_thr = 0.5
/
ATOMIC_SPECIES
  B 10 B.pbe-n-kjpaw_psl.1.0.0.UPF
  N 14 N.pbe-n-kjpaw_psl.1.0.0.UPF
 
ATOMIC_POSITIONS {crystal}
B        0.047622770   0.095245540   0.500000000
B        0.047619054   0.238098259   0.500000000
B        0.047620966   0.380946522   0.500000000
B        0.047623807   0.523812404   0.500000000
B        0.047620966   0.666674445   0.500000000
B        0.047619054   0.809520796   0.500000000
B        0.047622770   0.952377230   0.500000000
B        0.190485393   0.095242697   0.500000000
B        0.190479204   0.238098259   0.500000000
B        0.190475928   0.380951857   0.500000000
B        0.190483598   0.523812662   0.500000000
B        0.190483598   0.666671936   0.500000000
B        0.190475928   0.809524072   0.500000000
B        0.190479204   0.952380946   0.500000000
B        0.333331606   0.095241094   0.500000000
B        0.333331606   0.238090512   0.500000000
B        0.333325555   0.380946522   0.500000000
B        0.333328064   0.523812662   0.500000000
B        0.333333000   0.666667000   0.500000000
B        0.333328064   0.809516402   0.500000000
B        0.333325555   0.952379034   0.500000000
B        0.476187869   0.095244375   0.500000000
B        0.476187650   0.238093825   0.500000000
B        0.476187869   0.380943494   0.500000000
B        0.476187596   0.523812404   0.500000000
B        0.476187338   0.666671936   0.500000000
B        0.476187338   0.809516402   0.500000000
B        0.476187596   0.952376193   0.500000000
B        0.619056506   0.095244375   0.500000000
B        0.619050308   0.238099616   0.500000000
B        0.619050308   0.380949692   0.500000000
B        0.619056506   0.523812131   0.500000000
B        0.619053478   0.666674445   0.500000000
B        0.619048143   0.809524072   0.500000000
B        0.619053478   0.952379034   0.500000000
B        0.761909488   0.095241094   0.500000000
B        0.761906175   0.238093825   0.500000000
B        0.761900384   0.380949692   0.500000000
B        0.761906175   0.523812350   0.500000000
B        0.761909488   0.666668394   0.500000000
B        0.761901741   0.809520796   0.500000000
B        0.761901741   0.952380946   0.500000000
B        0.904757303   0.095242697   0.500000000
B        0.904758906   0.238090512   0.500000000
B        0.904755625   0.380943494   0.500000000
B        0.904755625   0.523812131   0.500000000
B        0.904758906   0.666668394   0.500000000
B        0.904757303   0.809514607   0.500000000
B        0.904754460   0.952377230   0.500000000
N        0.095246031   0.047623015   0.500000000
N        0.095242942   0.190485883   0.500000000
N        0.095241023   0.333331303   0.500000000
N        0.095244646   0.476187759   0.500000000
N        0.095244646   0.619056887   0.500000000
N        0.095241023   0.761909720   0.500000000
N        0.095242942   0.904757058   0.500000000
N        0.238098766   0.047619528   0.500000000
N        0.238098766   0.190479238   0.500000000
N        0.238090280   0.333331303   0.500000000
N        0.238093887   0.476187774   0.500000000
N        0.238100134   0.619050567   0.500000000
N        0.238093887   0.761906113   0.500000000
N        0.238090280   0.904758977   0.500000000
N        0.380946043   0.047621305   0.500000000
N        0.380951360   0.190475680   0.500000000
N        0.380946043   0.333324738   0.500000000
N        0.380943113   0.476187759   0.500000000
N        0.380949433   0.619050567   0.500000000
N        0.380949433   0.761899866   0.500000000
N        0.380943113   0.904755354   0.500000000
N        0.523812478   0.047623957   0.500000000
N        0.523812296   0.190483789   0.500000000
N        0.523812296   0.333327507   0.500000000
N        0.523812478   0.476187522   0.500000000
N        0.523812241   0.619056887   0.500000000
N        0.523812226   0.761906113   0.500000000
N        0.523812241   0.904755354   0.500000000
N        0.666675262   0.047621305   0.500000000
N        0.666672493   0.190483789   0.500000000
N        0.666667000   0.333333000   0.500000000
N        0.666672493   0.476187704   0.500000000
N        0.666675262   0.619053957   0.500000000
N        0.666668697   0.761909720   0.500000000
N        0.666668697   0.904758977   0.500000000
N        0.809520762   0.047619528   0.500000000
N        0.809524320   0.190475680   0.500000000
N        0.809516211   0.333327507   0.500000000
N        0.809516211   0.476187704   0.500000000
N        0.809524320   0.619048640   0.500000000
N        0.809520762   0.761901234   0.500000000
N        0.809514117   0.904757058   0.500000000
N        0.952376985   0.047623015   0.500000000
N        0.952380472   0.190479238   0.500000000
N        0.952378695   0.333324738   0.500000000
N        0.952376043   0.476187522   0.500000000
N        0.952378695   0.619053957   0.500000000
N        0.952380472   0.761901234   0.500000000
N        0.952376985   0.904753969   0.500000000

K_POINTS gamma

CELL_PARAMETERS alat
   0.999347343  -0.000000000   0.000000000
  -0.499673671   0.865460186   0.000000000
   0.000000000   0.000000000   1.137203616

