&CONTROL
	calculation = 'vc-relax'
	restart_mode = 'from_scratch'
	prefix = 'C2Cn'
	pseudo_dir ='./pseudo/'
	outdir='./TMP_DIR/'
	etot_conv_thr = 1.0E-6		
	forc_conv_thr = 1.94E-6
	tstress = .true.		
/
&SYSTEM
	ibrav = 0,
	celldm(1) = 33.23461096
	nat= 98,
	ntyp= 5,
	ecutwfc = 40.0
	nbnd = 245
	occupations = 'from_input' 
	nspin = 2,			! required for spin polarized calc
	starting_magnetization(3) = 1
	vdw_corr = 'Grimme-D3'
/
&ELECTRONS
	diagonalization = 'cg'
	conv_thr = 1.0E-12		! get to -12
/
&IONS
	ion_dynamics="bfgs"
/
&CELL
	cell_dofree = "2Dxy"
	cell_dynamics = 'bfgs'
	press = 0.0
	press_conv_thr = 0.1
	cell_factor = 4.0
/

ATOMIC_SPECIES
  B  10 B.pbe-n-kjpaw_psl.1.0.0.UPF
  N  14 N.pbe-n-kjpaw_psl.1.0.0.UPF
  C1 12 C.pbe-n-kjpaw_psl.1.0.0.UPF
  C2 12 C.pbe-n-kjpaw_psl.1.0.0.UPF
  C3 12 C.pbe-n-kjpaw_psl.1.0.0.UPF

ATOMIC_POSITIONS {crystal}
B        0.047243527   0.094634961   0.500000000
B        0.047303017   0.237737285   0.500000000
B        0.047259660   0.380903813   0.500000000
B        0.047165099   0.523736973   0.500000000
B        0.047651161   0.666619377   0.500000000
B        0.047939154   0.809604196   0.500000000
B        0.047722687   0.952277134   0.500000000
B        0.189891819   0.094259130   0.500000000
B        0.189087009   0.236346270   0.500000000
B        0.189982687   0.380649560   0.500000000
B        0.189387529   0.523714220   0.500000000
B        0.189689687   0.666800339   0.500000000
B        0.190389624   0.809610294   0.500000000
B        0.190395749   0.952060785   0.500000000
B        0.333202484   0.094303424   0.500000000
B        0.332563206   0.235895799   0.500000000
B        0.331023923   0.376699841   0.500000000
B        0.332105003   0.525218851   0.500000000
B        0.331934024   0.668065953   0.500000000
B        0.333199602   0.810310250   0.500000000
B        0.333380578   0.952348830   0.500000000
B        0.476256795   0.095148348   0.500000000
B        0.476015960   0.237685212   0.500000000
B        0.474990872   0.379734572   0.500000000
C2       0.477681629   0.522318370   0.500000000
B        0.474781190   0.667895023   0.500000000
B        0.476285814   0.810612472   0.500000000
B        0.476263043   0.952834890   0.500000000
B        0.618980207   0.095313704   0.500000000
B        0.619002778   0.238056897   0.500000000
B        0.619026719   0.380973243   0.500000000
B        0.620265433   0.525009173   0.500000000
B        0.623300235   0.668976228   0.500000000
B        0.619350535   0.810017422   0.500000000
B        0.619096251   0.952740329   0.500000000
B        0.761864276   0.095331556   0.500000000
B        0.761815540   0.238184414   0.500000000
B        0.761943057   0.380997187   0.500000000
B        0.762314798   0.523984062   0.500000000
B        0.764104268   0.667436934   0.500000000
B        0.763653821   0.810913133   0.500000000
B        0.762262732   0.952696933   0.500000000
B        0.904818473   0.095181369   0.500000000
B        0.904668347   0.238135690   0.500000000
B        0.904686247   0.381019804   0.500000000
B        0.904851678   0.523743208   0.500000000
B        0.905696615   0.666797572   0.500000000
B        0.905740838   0.810108216   0.500000000
B        0.905364860   0.952756292   0.500000000
N        0.094946313   0.047155060   0.500000000
N        0.094326750   0.189520718   0.500000000
N        0.094826028   0.333100042   0.500000000
N        0.094459258   0.476033730   0.500000000
N        0.094756054   0.618906641   0.500000000
N        0.095300198   0.761858283   0.500000000
N        0.095333167   0.904666937   0.500000000
N        0.237945131   0.047041929   0.500000000
N        0.237245634   0.189120393   0.500000000
N        0.236303914   0.331231335   0.500000000
N        0.236898725   0.476208930   0.500000000
N        0.236850132   0.619240635   0.500000000
N        0.237884849   0.762115149   0.500000000
N        0.238141704   0.904699806   0.500000000
N        0.381111679   0.047318667   0.500000000
N        0.380879130   0.189214236   0.500000000
N        0.379825325   0.330200318   0.500000000
C1       0.382258121   0.475594176   0.500000000
N        0.379004628   0.620995355   0.500000000
N        0.380759325   0.763149865   0.500000000
N        0.381093284   0.905243917   0.500000000
N        0.523929100   0.047862944   0.500000000
N        0.523864709   0.190470207   0.500000000
N        0.523620308   0.333456542   0.500000000
N        0.523312496   0.476687530   0.500000000
C3       0.524405862   0.617741924   0.500000000
N        0.523791002   0.763101240   0.500000000
N        0.523966150   0.905540716   0.500000000
N        0.666696233   0.047869967   0.500000000
N        0.666612174   0.190570592   0.500000000
N        0.666550233   0.333449779   0.500000000
N        0.666543476   0.476379691   0.500000000
N        0.669799669   0.620174631   0.500000000
N        0.668768586   0.763696014   0.500000000
N        0.666899879   0.905173974   0.500000000
N        0.809611442   0.047808201   0.500000000
N        0.809433741   0.190566350   0.500000000
N        0.809429420   0.333387822   0.500000000
N        0.809529774   0.476135263   0.500000000
N        0.810785728   0.619120798   0.500000000
N        0.810879593   0.762754294   0.500000000
N        0.810479357   0.905673316   0.500000000
N        0.952397879   0.047602393   0.500000000
N        0.952191977   0.190388687   0.500000000
N        0.952130082   0.333303723   0.500000000
N        0.952137021   0.476070803   0.500000000
N        0.952681279   0.618888250   0.500000000
N        0.952958103   0.762054852   0.500000000
N        0.952845129   0.905053831   0.500000000


K_POINTS gamma 

CELL_PARAMETERS alat
   1.001046191   0.000225154   0.000000000
  -0.500328108   0.867044008   0.000000000
   0.000000000   0.000000000   1.137203616

OCCUPATIONS
  1.0 1.0 1.0 1.0 1.0 1.0 1.0 1.0
  1.0 1.0 1.0 1.0 1.0 1.0 1.0 1.0
  1.0 1.0 1.0 1.0 1.0 1.0 1.0 1.0
  1.0 1.0 1.0 1.0 1.0 1.0 1.0 1.0
  1.0 1.0 1.0 1.0 1.0 1.0 1.0 1.0
  1.0 1.0 1.0 1.0 1.0 1.0 1.0 1.0
  1.0 1.0 1.0 1.0 1.0 1.0 1.0 1.0
  1.0 1.0 1.0 1.0 1.0 1.0 1.0 1.0
  1.0 1.0 1.0 1.0 1.0 1.0 1.0 1.0
  1.0 1.0 1.0 1.0 1.0 1.0 1.0 1.0
  1.0 1.0 1.0 1.0 1.0 1.0 1.0 1.0
  1.0 1.0 1.0 1.0 1.0 1.0 1.0 1.0
  1.0 1.0 1.0 1.0 1.0 1.0 1.0 1.0
  1.0 1.0 1.0 1.0 1.0 1.0 1.0 1.0
  1.0 1.0 1.0 1.0 1.0 1.0 1.0 1.0
  1.0 1.0 1.0 1.0 1.0 1.0 1.0 1.0
  1.0 1.0 1.0 1.0 1.0 1.0 1.0 1.0
  1.0 1.0 1.0 1.0 1.0 1.0 1.0 1.0
  1.0 1.0 1.0 1.0 1.0 1.0 1.0 1.0
  1.0 1.0 1.0 1.0 1.0 1.0 1.0 1.0
  1.0 1.0 1.0 1.0 1.0 1.0 1.0 1.0
  1.0 1.0 1.0 1.0 1.0 1.0 1.0 1.0
  1.0 1.0 1.0 1.0 1.0 1.0 1.0 1.0
  1.0 1.0 1.0 1.0 1.0 1.0 1.0 1.0
  1.0 1.0 1.0 1.0 1.0 0.0 0.0 0.0
  0.0 0.0 0.0 0.0 0.0 0.0 0.0 0.0
  0.0 0.0 0.0 0.0 0.0 0.0 0.0 0.0
  0.0 0.0 0.0 0.0 0.0 0.0 0.0 0.0
  0.0 0.0 0.0 0.0 0.0 0.0 0.0 0.0
  0.0 0.0 0.0 0.0 0.0 0.0 0.0 0.0
  0.0 0.0 0.0 0.0 0.0
  1.0 1.0 1.0 1.0 1.0 1.0 1.0 1.0
  1.0 1.0 1.0 1.0 1.0 1.0 1.0 1.0
  1.0 1.0 1.0 1.0 1.0 1.0 1.0 1.0
  1.0 1.0 1.0 1.0 1.0 1.0 1.0 1.0
  1.0 1.0 1.0 1.0 1.0 1.0 1.0 1.0
  1.0 1.0 1.0 1.0 1.0 1.0 1.0 1.0
  1.0 1.0 1.0 1.0 1.0 1.0 1.0 1.0
  1.0 1.0 1.0 1.0 1.0 1.0 1.0 1.0
  1.0 1.0 1.0 1.0 1.0 1.0 1.0 1.0
  1.0 1.0 1.0 1.0 1.0 1.0 1.0 1.0
  1.0 1.0 1.0 1.0 1.0 1.0 1.0 1.0
  1.0 1.0 1.0 1.0 1.0 1.0 1.0 1.0
  1.0 1.0 1.0 1.0 1.0 1.0 1.0 1.0
  1.0 1.0 1.0 1.0 1.0 1.0 1.0 1.0
  1.0 1.0 1.0 1.0 1.0 1.0 1.0 1.0
  1.0 1.0 1.0 1.0 1.0 1.0 1.0 1.0
  1.0 1.0 1.0 1.0 1.0 1.0 1.0 1.0
  1.0 1.0 1.0 1.0 1.0 1.0 1.0 1.0
  1.0 1.0 1.0 1.0 1.0 1.0 1.0 1.0
  1.0 1.0 1.0 1.0 1.0 1.0 1.0 1.0
  1.0 1.0 1.0 1.0 1.0 1.0 1.0 1.0
  1.0 1.0 1.0 1.0 1.0 1.0 1.0 1.0
  1.0 1.0 1.0 1.0 1.0 1.0 1.0 1.0
  1.0 1.0 1.0 1.0 1.0 1.0 1.0 1.0
  1.0 1.0 0.0 0.0 0.0 0.0 0.0 0.0
  0.0 0.0 0.0 0.0 0.0 0.0 0.0 0.0
  0.0 0.0 0.0 0.0 0.0 0.0 0.0 0.0
  0.0 0.0 0.0 0.0 0.0 0.0 0.0 0.0
  0.0 0.0 0.0 0.0 0.0 0.0 0.0 0.0
  0.0 0.0 0.0 0.0 0.0 0.0 0.0 0.0
  0.0 0.0 0.0 0.0 0.0
  
