&CONTROL
	calculation = 'vc-relax'
	restart_mode = 'from_scratch'
	prefix = 'hBN'
	pseudo_dir ='./pseudo/'
	outdir='./TMP_DIR/'
	forc_conv_thr = 0.0001945 ! 1 a.u. = 51.421 eV/A
/
&SYSTEM
	ibrav = 4,
	celldm(1) = 33.234610961
	celldm(3) = 1.13720361631
	nat= 98,
	ntyp= 2,
	ecutwfc = 40.0, 
	ecutrho = 500,
	vdw_corr = 'Grimme-D3'
/
&ELECTRONS
	diagonalization = 'cg'
/
&IONS
	ion_dynamics="bfgs"
/
&CELL
	cell_dofree = "2Dxy"
	cell_dynamics = 'bfgs'
	press = 0.0
	press_conv_thr = 0.5
/
ATOMIC_SPECIES
  B 10 B.pbe-n-kjpaw_psl.1.0.0.UPF
  N 14 N.pbe-n-kjpaw_psl.1.0.0.UPF
 
ATOMIC_POSITIONS {crystal}
   B                0.047619     0.095238     0.500000     
   B                0.047619     0.238095     0.500000     
   B                0.047619     0.380952     0.500000     
   B                0.047619     0.523810     0.500000     
   B                0.047619     0.666667     0.500000     
   B                0.047619     0.809524     0.500000     
   B                0.047619     0.952381     0.500000     
   B                0.190476     0.095238     0.500000     
   B                0.190476     0.238095     0.500000     
   B                0.190476     0.380952     0.500000     
   B                0.190476     0.523810     0.500000     
   B                0.190476     0.666667     0.500000     
   B                0.190476     0.809524     0.500000     
   B                0.190476     0.952381     0.500000     
   B                0.333333     0.095238     0.500000     
   B                0.333333     0.238095     0.500000     
   B                0.333333     0.380952     0.500000     
   B                0.333333     0.523810     0.500000     
   B                0.333333     0.666667     0.500000     
   B                0.333333     0.809524     0.500000     
   B                0.333333     0.952381     0.500000     
   B                0.476190     0.095238     0.500000     
   B                0.476190     0.238095     0.500000     
   B                0.476190     0.380952     0.500000     
   B                0.476190     0.523810     0.500000     
   B                0.476190     0.666667     0.500000     
   B                0.476190     0.809524     0.500000     
   B                0.476190     0.952381     0.500000     
   B                0.619048     0.095238     0.500000     
   B                0.619048     0.238095     0.500000     
   B                0.619048     0.380952     0.500000     
   B                0.619048     0.523810     0.500000     
   B                0.619048     0.666667     0.500000     
   B                0.619048     0.809524     0.500000     
   B                0.619048     0.952381     0.500000     
   B                0.761905     0.095238     0.500000     
   B                0.761905     0.238095     0.500000     
   B                0.761905     0.380952     0.500000     
   B                0.761905     0.523810     0.500000     
   B                0.761905     0.666667     0.500000     
   B                0.761905     0.809524     0.500000     
   B                0.761905     0.952381     0.500000     
   B                0.904762     0.095238     0.500000     
   B                0.904762     0.238095     0.500000     
   B                0.904762     0.380952     0.500000     
   B                0.904762     0.523810     0.500000     
   B                0.904762     0.666667     0.500000     
   B                0.904762     0.809524     0.500000     
   B                0.904762     0.952381     0.500000     
   N                0.095238     0.047619     0.500000     
   N                0.095238     0.190476     0.500000     
   N                0.095238     0.333333     0.500000     
   N                0.095238     0.476190     0.500000     
   N                0.095238     0.619048     0.500000     
   N                0.095238     0.761905     0.500000     
   N                0.095238     0.904762     0.500000     
   N                0.238095     0.047619     0.500000     
   N                0.238095     0.190476     0.500000     
   N                0.238095     0.333333     0.500000     
   N                0.238095     0.476190     0.500000     
   N                0.238095     0.619048     0.500000     
   N                0.238095     0.761905     0.500000     
   N                0.238095     0.904762     0.500000     
   N                0.380952     0.047619     0.500000     
   N                0.380952     0.190476     0.500000     
   N                0.380952     0.333333     0.500000     
   N                0.380952     0.476190     0.500000     
   N                0.380952     0.619048     0.500000     
   N                0.380952     0.761905     0.500000     
   N                0.380952     0.904762     0.500000     
   N                0.523810     0.047619     0.500000     
   N                0.523810     0.190476     0.500000     
   N                0.523810     0.333333     0.500000     
   N                0.523810     0.476190     0.500000     
   N                0.523810     0.619048     0.500000     
   N                0.523810     0.761905     0.500000     
   N                0.523810     0.904762     0.500000     
   N                0.666667     0.047619     0.500000     
   N                0.666667     0.190476     0.500000     
   N                0.666667     0.333333     0.500000     
   N                0.666667     0.476190     0.500000     
   N                0.666667     0.619048     0.500000     
   N                0.666667     0.761905     0.500000     
   N                0.666667     0.904762     0.500000     
   N                0.809524     0.047619     0.500000     
   N                0.809524     0.190476     0.500000     
   N                0.809524     0.333333     0.500000     
   N                0.809524     0.476190     0.500000     
   N                0.809524     0.619048     0.500000     
   N                0.809524     0.761905     0.500000     
   N                0.809524     0.904762     0.500000     
   N                0.952381     0.047619     0.500000     
   N                0.952381     0.190476     0.500000     
   N                0.952381     0.333333     0.500000     
   N                0.952381     0.476190     0.500000     
   N                0.952381     0.619048     0.500000     
   N                0.952381     0.761905     0.500000     
   N                0.952381     0.904762     0.500000     

K_POINTS gamma

!CELL_PARAMETERS alat

