&CONTROL
	calculation = 'vc-relax'
	restart_mode = 'from_scratch'
	prefix = 'C2Cn'
	pseudo_dir ='./pseudo/'
	outdir='./TMP_DIR/'
	etot_conv_thr = 1.0E-6		
	forc_conv_thr = 1.94E-6
	tstress = .true.		
/
&SYSTEM
	ibrav = 0,
	celldm(1) = 33.23461096
	nat= 98,
	ntyp= 5,
	ecutwfc = 40.0
	nbnd = 245
	occupations = 'from_input' 
	nspin = 2,			! required for spin polarized calc
	starting_magnetization(3) = 1
	vdw_corr = 'Grimme-D3'
/
&ELECTRONS
	diagonalization = 'cg'
	conv_thr = 1.0E-12		! get to -12
/
&IONS
	ion_dynamics="bfgs"
/
&CELL
	cell_dofree = "2Dxy"
	cell_dynamics = 'bfgs'
	press = 0.0
	press_conv_thr = 0.1
	cell_factor = 4.0
/

ATOMIC_SPECIES
  B  10 B.pbe-n-kjpaw_psl.1.0.0.UPF
  N  14 N.pbe-n-kjpaw_psl.1.0.0.UPF
  C1 12 C.pbe-n-kjpaw_psl.1.0.0.UPF
  C2 12 C.pbe-n-kjpaw_psl.1.0.0.UPF
  C3 12 C.pbe-n-kjpaw_psl.1.0.0.UPF

ATOMIC_POSITIONS {crystal}
B        0.047298000   0.094709180   0.500000000
B        0.047350470   0.237764049   0.500000000
B        0.047289043   0.380856101   0.500000000
B        0.047183906   0.523771985   0.500000000
B        0.047611287   0.666640410   0.500000000
B        0.047886253   0.809632159   0.500000000
B        0.047697620   0.952302386   0.500000000
B        0.189933878   0.094371515   0.500000000
B        0.189271288   0.236562150   0.500000000
B        0.190116930   0.380812538   0.500000000
B        0.189506630   0.523686188   0.500000000
B        0.189620421   0.666778045   0.500000000
B        0.190335162   0.809664842   0.500000000
B        0.190367843   0.952113749   0.500000000
B        0.333206579   0.094357051   0.500000000
B        0.332751862   0.236200696   0.500000000
B        0.331745373   0.377571460   0.500000000
B        0.332422291   0.525064535   0.500000000
B        0.331884215   0.668115788   0.500000000
B        0.333221963   0.810379586   0.500000000
B        0.333359592   0.952388715   0.500000000
B        0.476263889   0.095147447   0.500000000
B        0.476139296   0.237767470   0.500000000
B        0.475162098   0.379901081   0.500000000
C2       0.477261896   0.522738100   0.500000000
B        0.474935461   0.667577705   0.500000000
B        0.476313814   0.810493371   0.500000000
B        0.476228018   0.952816096   0.500000000
B        0.618998737   0.095271379   0.500000000
B        0.619016735   0.237966374   0.500000000
B        0.619108167   0.380891834   0.500000000
B        0.620098919   0.524837902   0.500000000
B        0.622428538   0.668254627   0.500000000
B        0.619187462   0.809883069   0.500000000
B        0.619143899   0.952710955   0.500000000
B        0.761872015   0.095293077   0.500000000
B        0.761847973   0.238152021   0.500000000
B        0.762033626   0.380983266   0.500000000
B        0.762232529   0.523860702   0.500000000
B        0.763799305   0.667248138   0.500000000
B        0.763437852   0.810728715   0.500000000
B        0.762235948   0.952649527   0.500000000
B        0.904837030   0.095162962   0.500000000
B        0.904706914   0.238127977   0.500000000
B        0.904728616   0.381001260   0.500000000
B        0.904852550   0.523736110   0.500000000
B        0.905642948   0.666793418   0.500000000
B        0.905628491   0.810066126   0.500000000
B        0.905290822   0.952702002   0.500000000
N        0.094974050   0.047226707   0.500000000
N        0.094462304   0.189644987   0.500000000
N        0.094875502   0.333125095   0.500000000
N        0.094565343   0.476049159   0.500000000
N        0.094701423   0.618923972   0.500000000
N        0.095263417   0.761904290   0.500000000
N        0.095296328   0.904703669   0.500000000
N        0.237945897   0.047108888   0.500000000
N        0.237324637   0.189269709   0.500000000
N        0.236650122   0.331594269   0.500000000
N        0.237056471   0.476243042   0.500000000
N        0.236757327   0.619261255   0.500000000
N        0.237862013   0.762137990   0.500000000
N        0.238095710   0.904736582   0.500000000
N        0.381098246   0.047367288   0.500000000
N        0.380947141   0.189351950   0.500000000
N        0.380059994   0.330428855   0.500000000
C1       0.383121942   0.476271699   0.500000000
N        0.378852164   0.621147834   0.500000000
N        0.380738748   0.763242674   0.500000000
N        0.381076031   0.905298579   0.500000000
N        0.523921188   0.047823221   0.500000000
N        0.523899915   0.190451936   0.500000000
N        0.523739185   0.333453573   0.500000000
N        0.523300996   0.476699005   0.500000000
C3       0.523728303   0.616878059   0.500000000
N        0.523756957   0.762943526   0.500000000
N        0.523950843   0.905434654   0.500000000
N        0.666704145   0.047832178   0.500000000
N        0.666641872   0.190518055   0.500000000
N        0.666611080   0.333388921   0.500000000
N        0.666546428   0.476260818   0.500000000
N        0.669571151   0.619940010   0.500000000
N        0.668405736   0.763349878   0.500000000
N        0.666874903   0.905124492   0.500000000
N        0.809607417   0.047755759   0.500000000
N        0.809467680   0.190532316   0.500000000
N        0.809481945   0.333358125   0.500000000
N        0.809548066   0.476100085   0.500000000
N        0.810648052   0.619052863   0.500000000
N        0.810730296   0.762675365   0.500000000
N        0.810355015   0.905537693   0.500000000
N        0.952403905   0.047596093   0.500000000
N        0.952244235   0.190392579   0.500000000
N        0.952167818   0.333295852   0.500000000
N        0.952176781   0.476078811   0.500000000
N        0.952632714   0.618901754   0.500000000
N        0.952891111   0.762054102   0.500000000
N        0.952773292   0.905025949   0.500000000


K_POINTS gamma 

CELL_PARAMETERS alat
   1.001046576   0.000089314   0.000000000
  -0.500445940   0.866976422   0.000000000
   0.000000000   0.000000000   1.137203616


OCCUPATIONS
  1.0 1.0 1.0 1.0 1.0 1.0 1.0 1.0
  1.0 1.0 1.0 1.0 1.0 1.0 1.0 1.0
  1.0 1.0 1.0 1.0 1.0 1.0 1.0 1.0
  1.0 1.0 1.0 1.0 1.0 1.0 1.0 1.0
  1.0 1.0 1.0 1.0 1.0 1.0 1.0 1.0
  1.0 1.0 1.0 1.0 1.0 1.0 1.0 1.0
  1.0 1.0 1.0 1.0 1.0 1.0 1.0 1.0
  1.0 1.0 1.0 1.0 1.0 1.0 1.0 1.0
  1.0 1.0 1.0 1.0 1.0 1.0 1.0 1.0
  1.0 1.0 1.0 1.0 1.0 1.0 1.0 1.0
  1.0 1.0 1.0 1.0 1.0 1.0 1.0 1.0
  1.0 1.0 1.0 1.0 1.0 1.0 1.0 1.0
  1.0 1.0 1.0 1.0 1.0 1.0 1.0 1.0
  1.0 1.0 1.0 1.0 1.0 1.0 1.0 1.0
  1.0 1.0 1.0 1.0 1.0 1.0 1.0 1.0
  1.0 1.0 1.0 1.0 1.0 1.0 1.0 1.0
  1.0 1.0 1.0 1.0 1.0 1.0 1.0 1.0
  1.0 1.0 1.0 1.0 1.0 1.0 1.0 1.0
  1.0 1.0 1.0 1.0 1.0 1.0 1.0 1.0
  1.0 1.0 1.0 1.0 1.0 1.0 1.0 1.0
  1.0 1.0 1.0 1.0 1.0 1.0 1.0 1.0
  1.0 1.0 1.0 1.0 1.0 1.0 1.0 1.0
  1.0 1.0 1.0 1.0 1.0 1.0 1.0 1.0
  1.0 1.0 1.0 1.0 1.0 1.0 1.0 1.0
  1.0 1.0 0.0 1.0 1.0 0.0 0.0 0.0
  0.0 0.0 0.0 0.0 0.0 0.0 0.0 0.0
  0.0 0.0 0.0 0.0 0.0 0.0 0.0 0.0
  0.0 0.0 0.0 0.0 0.0 0.0 0.0 0.0
  0.0 0.0 0.0 0.0 0.0 0.0 0.0 0.0
  0.0 0.0 0.0 0.0 0.0 0.0 0.0 0.0
  0.0 0.0 0.0 0.0 0.0
  1.0 1.0 1.0 1.0 1.0 1.0 1.0 1.0
  1.0 1.0 1.0 1.0 1.0 1.0 1.0 1.0
  1.0 1.0 1.0 1.0 1.0 1.0 1.0 1.0
  1.0 1.0 1.0 1.0 1.0 1.0 1.0 1.0
  1.0 1.0 1.0 1.0 1.0 1.0 1.0 1.0
  1.0 1.0 1.0 1.0 1.0 1.0 1.0 1.0
  1.0 1.0 1.0 1.0 1.0 1.0 1.0 1.0
  1.0 1.0 1.0 1.0 1.0 1.0 1.0 1.0
  1.0 1.0 1.0 1.0 1.0 1.0 1.0 1.0
  1.0 1.0 1.0 1.0 1.0 1.0 1.0 1.0
  1.0 1.0 1.0 1.0 1.0 1.0 1.0 1.0
  1.0 1.0 1.0 1.0 1.0 1.0 1.0 1.0
  1.0 1.0 1.0 1.0 1.0 1.0 1.0 1.0
  1.0 1.0 1.0 1.0 1.0 1.0 1.0 1.0
  1.0 1.0 1.0 1.0 1.0 1.0 1.0 1.0
  1.0 1.0 1.0 1.0 1.0 1.0 1.0 1.0
  1.0 1.0 1.0 1.0 1.0 1.0 1.0 1.0
  1.0 1.0 1.0 1.0 1.0 1.0 1.0 1.0
  1.0 1.0 1.0 1.0 1.0 1.0 1.0 1.0
  1.0 1.0 1.0 1.0 1.0 1.0 1.0 1.0
  1.0 1.0 1.0 1.0 1.0 1.0 1.0 1.0
  1.0 1.0 1.0 1.0 1.0 1.0 1.0 1.0
  1.0 1.0 1.0 1.0 1.0 1.0 1.0 1.0
  1.0 1.0 1.0 1.0 1.0 1.0 1.0 1.0
  1.0 1.0 1.0 0.0 0.0 0.0 0.0 0.0
  0.0 0.0 0.0 0.0 0.0 0.0 0.0 0.0
  0.0 0.0 0.0 0.0 0.0 0.0 0.0 0.0
  0.0 0.0 0.0 0.0 0.0 0.0 0.0 0.0
  0.0 0.0 0.0 0.0 0.0 0.0 0.0 0.0
  0.0 0.0 0.0 0.0 0.0 0.0 0.0 0.0
  0.0 0.0 0.0 0.0 0.0
  
