&CONTROL
	calculation = 'vc-relax'
	restart_mode = 'from_scratch'
	prefix = 'C2Cn'
	pseudo_dir ='./pseudo/'
	outdir='./TMP_DIR/'
	etot_conv_thr = 1.0E-6		
	forc_conv_thr = 1.94E-5
	tstress = .true.		
/
&SYSTEM
	ibrav = 0,
	celldm(1) = 33.23461096
	nat= 98,
	ntyp= 5,
	ecutwfc = 40.0
	nbnd = 245
	occupations = 'from_input' 
	nspin = 2,			! required for spin polarized calc
	starting_magnetization(3) = 1
	vdw_corr = 'Grimme-D3'
/
&ELECTRONS
	diagonalization = 'cg'
	conv_thr = 1.0E-10		! get to -12
/
&IONS
	ion_dynamics="bfgs"
/
&CELL
	cell_dofree = "2Dxy"
	cell_dynamics = 'bfgs'
	press = 0.0
	press_conv_thr = 0.1
	cell_factor = 4.0
/

ATOMIC_SPECIES
  B  10 B.pbe-n-kjpaw_psl.1.0.0.UPF
  N  14 N.pbe-n-kjpaw_psl.1.0.0.UPF
  C1 12 C.pbe-n-kjpaw_psl.1.0.0.UPF
  C2 12 C.pbe-n-kjpaw_psl.1.0.0.UPF
  C3 12 C.pbe-n-kjpaw_psl.1.0.0.UPF

ATOMIC_POSITIONS {crystal}
B        0.047299897   0.094727132   0.500000000
B        0.047373646   0.237783159   0.500000000
B        0.047313910   0.380878828   0.500000000
B        0.047199177   0.523795424   0.500000000
B        0.047603974   0.666656382   0.500000000
B        0.047858911   0.809653704   0.500000000
B        0.047676145   0.952323836   0.500000000
B        0.189935754   0.094404565   0.500000000
B        0.189293040   0.236588626   0.500000000
B        0.190139081   0.380835945   0.500000000
B        0.189511153   0.523707955   0.500000000
B        0.189617580   0.666803723   0.500000000
B        0.190312406   0.809687631   0.500000000
B        0.190346307   0.952141095   0.500000000
B        0.333204549   0.094371158   0.500000000
B        0.332779128   0.236219263   0.500000000
B        0.331774196   0.377576895   0.500000000
B        0.332432719   0.525074597   0.500000000
B        0.331871552   0.668128500   0.500000000
B        0.333196324   0.810382463   0.500000000
B        0.333343634   0.952396024   0.500000000
B        0.476262330   0.095133305   0.500000000
B        0.476156645   0.237760385   0.500000000
B        0.475194087   0.379893554   0.500000000
C2       0.477278286   0.522721615   0.500000000
B        0.474925402   0.667567300   0.500000000
B        0.476292046   0.810488889   0.500000000
B        0.476204598   0.952800811   0.500000000
B        0.618995772   0.095244142   0.500000000
B        0.619027195   0.237940082   0.500000000
B        0.619132573   0.380867416   0.500000000
B        0.620106436   0.524805870   0.500000000
B        0.622423085   0.668225794   0.500000000
B        0.619164046   0.809860941   0.500000000
B        0.619121149   0.952686104   0.500000000
B        0.761868487   0.095268877   0.500000000
B        0.761866203   0.238133810   0.500000000
B        0.762059927   0.380972814   0.500000000
B        0.762239603   0.523843350   0.500000000
B        0.763780712   0.667220840   0.500000000
B        0.763411334   0.810706947   0.500000000
B        0.762216830   0.952626375   0.500000000
B        0.904837085   0.095162909   0.500000000
B        0.904731133   0.238131522   0.500000000
B        0.904755862   0.381004234   0.500000000
B        0.904866663   0.523737673   0.500000000
B        0.905628803   0.666795431   0.500000000
B        0.905595414   0.810064236   0.500000000
B        0.905272863   0.952700105   0.500000000
N        0.094971827   0.047252172   0.500000000
N        0.094481776   0.189666082   0.500000000
N        0.094898352   0.333146918   0.500000000
N        0.094576140   0.476070795   0.500000000
N        0.094702912   0.618945659   0.500000000
N        0.095239258   0.761921941   0.500000000
N        0.095271637   0.904728312   0.500000000
N        0.237940837   0.047138997   0.500000000
N        0.237349324   0.189304412   0.500000000
N        0.236676857   0.331618876   0.500000000
N        0.237064044   0.476263078   0.500000000
N        0.236750036   0.619280699   0.500000000
N        0.237842697   0.762157293   0.500000000
N        0.238078035   0.904760719   0.500000000
N        0.381095382   0.047374591   0.500000000
N        0.380964891   0.189365697   0.500000000
N        0.380094467   0.330439703   0.500000000
C1       0.383139627   0.476274493   0.500000000
N        0.378842308   0.621157675   0.500000000
N        0.380719280   0.763249958   0.500000000
N        0.381054344   0.905297084   0.500000000
N        0.523916788   0.047804864   0.500000000
N        0.523910174   0.190436619   0.500000000
N        0.523767147   0.333443186   0.500000000
N        0.523317348   0.476682620   0.500000000
C3       0.523725497   0.616860385   0.500000000
N        0.523736913   0.762935957   0.500000000
N        0.523929207   0.905423858   0.500000000
N        0.666697298   0.047805833   0.500000000
N        0.666654377   0.190492295   0.500000000
N        0.666634303   0.333365727   0.500000000
N        0.666556832   0.476232832   0.500000000
N        0.669560293   0.619905513   0.500000000
N        0.668381132   0.763323154   0.500000000
N        0.666853105   0.905101673   0.500000000
N        0.809602413   0.047737467   0.500000000
N        0.809484528   0.190515526   0.500000000
N        0.809507760   0.333345672   0.500000000
N        0.809563407   0.476089845   0.500000000
N        0.810634316   0.619035103   0.500000000
N        0.810695599   0.762650664   0.500000000
N        0.810333934   0.905518220   0.500000000
N        0.952399859   0.047600123   0.500000000
N        0.952262559   0.190397617   0.500000000
N        0.952194204   0.333302748   0.500000000
N        0.952195138   0.476083233   0.500000000
N        0.952625404   0.618904613   0.500000000
N        0.952860988   0.762059137   0.500000000
N        0.952747788   0.905028127   0.500000000

K_POINTS gamma 

CELL_PARAMETERS alat
   1.001059750   0.000086960   0.000000000
  -0.500454565   0.866986660   0.000000000
   0.000000000   0.000000000   1.137203616


OCCUPATIONS
  1.0 1.0 1.0 1.0 1.0 1.0 1.0 1.0
  1.0 1.0 1.0 1.0 1.0 1.0 1.0 1.0
  1.0 1.0 1.0 1.0 1.0 1.0 1.0 1.0
  1.0 1.0 1.0 1.0 1.0 1.0 1.0 1.0
  1.0 1.0 1.0 1.0 1.0 1.0 1.0 1.0
  1.0 1.0 1.0 1.0 1.0 1.0 1.0 1.0
  1.0 1.0 1.0 1.0 1.0 1.0 1.0 1.0
  1.0 1.0 1.0 1.0 1.0 1.0 1.0 1.0
  1.0 1.0 1.0 1.0 1.0 1.0 1.0 1.0
  1.0 1.0 1.0 1.0 1.0 1.0 1.0 1.0
  1.0 1.0 1.0 1.0 1.0 1.0 1.0 1.0
  1.0 1.0 1.0 1.0 1.0 1.0 1.0 1.0
  1.0 1.0 1.0 1.0 1.0 1.0 1.0 1.0
  1.0 1.0 1.0 1.0 1.0 1.0 1.0 1.0
  1.0 1.0 1.0 1.0 1.0 1.0 1.0 1.0
  1.0 1.0 1.0 1.0 1.0 1.0 1.0 1.0
  1.0 1.0 1.0 1.0 1.0 1.0 1.0 1.0
  1.0 1.0 1.0 1.0 1.0 1.0 1.0 1.0
  1.0 1.0 1.0 1.0 1.0 1.0 1.0 1.0
  1.0 1.0 1.0 1.0 1.0 1.0 1.0 1.0
  1.0 1.0 1.0 1.0 1.0 1.0 1.0 1.0
  1.0 1.0 1.0 1.0 1.0 1.0 1.0 1.0
  1.0 1.0 1.0 1.0 1.0 1.0 1.0 1.0
  1.0 1.0 1.0 1.0 1.0 1.0 1.0 1.0
  1.0 1.0 0.0 1.0 1.0 0.0 0.0 0.0
  0.0 0.0 0.0 0.0 0.0 0.0 0.0 0.0
  0.0 0.0 0.0 0.0 0.0 0.0 0.0 0.0
  0.0 0.0 0.0 0.0 0.0 0.0 0.0 0.0
  0.0 0.0 0.0 0.0 0.0 0.0 0.0 0.0
  0.0 0.0 0.0 0.0 0.0 0.0 0.0 0.0
  0.0 0.0 0.0 0.0 0.0
  1.0 1.0 1.0 1.0 1.0 1.0 1.0 1.0
  1.0 1.0 1.0 1.0 1.0 1.0 1.0 1.0
  1.0 1.0 1.0 1.0 1.0 1.0 1.0 1.0
  1.0 1.0 1.0 1.0 1.0 1.0 1.0 1.0
  1.0 1.0 1.0 1.0 1.0 1.0 1.0 1.0
  1.0 1.0 1.0 1.0 1.0 1.0 1.0 1.0
  1.0 1.0 1.0 1.0 1.0 1.0 1.0 1.0
  1.0 1.0 1.0 1.0 1.0 1.0 1.0 1.0
  1.0 1.0 1.0 1.0 1.0 1.0 1.0 1.0
  1.0 1.0 1.0 1.0 1.0 1.0 1.0 1.0
  1.0 1.0 1.0 1.0 1.0 1.0 1.0 1.0
  1.0 1.0 1.0 1.0 1.0 1.0 1.0 1.0
  1.0 1.0 1.0 1.0 1.0 1.0 1.0 1.0
  1.0 1.0 1.0 1.0 1.0 1.0 1.0 1.0
  1.0 1.0 1.0 1.0 1.0 1.0 1.0 1.0
  1.0 1.0 1.0 1.0 1.0 1.0 1.0 1.0
  1.0 1.0 1.0 1.0 1.0 1.0 1.0 1.0
  1.0 1.0 1.0 1.0 1.0 1.0 1.0 1.0
  1.0 1.0 1.0 1.0 1.0 1.0 1.0 1.0
  1.0 1.0 1.0 1.0 1.0 1.0 1.0 1.0
  1.0 1.0 1.0 1.0 1.0 1.0 1.0 1.0
  1.0 1.0 1.0 1.0 1.0 1.0 1.0 1.0
  1.0 1.0 1.0 1.0 1.0 1.0 1.0 1.0
  1.0 1.0 1.0 1.0 1.0 1.0 1.0 1.0
  1.0 1.0 1.0 0.0 0.0 0.0 0.0 0.0
  0.0 0.0 0.0 0.0 0.0 0.0 0.0 0.0
  0.0 0.0 0.0 0.0 0.0 0.0 0.0 0.0
  0.0 0.0 0.0 0.0 0.0 0.0 0.0 0.0
  0.0 0.0 0.0 0.0 0.0 0.0 0.0 0.0
  0.0 0.0 0.0 0.0 0.0 0.0 0.0 0.0
  0.0 0.0 0.0 0.0 0.0
  
