&CONTROL
	calculation = 'vc-relax'
	restart_mode = 'from_scratch'
	prefix = 'C2Cn'
	pseudo_dir ='./pseudo/'
	outdir='./TMP_DIR/'
	etot_conv_thr = 1.0E-5		
	forc_conv_thr = 1.94E-4
	tstress = .true.		
/
&SYSTEM
	ibrav = 0,
	celldm(1) = 33.23461096
	nat= 98,
	ntyp= 5,
	ecutwfc = 40.0
	nbnd = 245
	occupations = 'from_input' 
	nspin = 2,			! required for spin polarized calc
	starting_magnetization(3) = 1
	vdw_corr = 'Grimme-D3'
/
&ELECTRONS
	diagonalization = 'cg'
	conv_thr = 1.0E-6		! get to -12
/
&IONS
	ion_dynamics="bfgs"
/
&CELL
	cell_dofree = "2Dxy"
	cell_dynamics = 'bfgs'
	press = 0.0
	press_conv_thr = 0.1
	cell_factor = 4.0
/

ATOMIC_SPECIES
  B  10 B.pbe-n-kjpaw_psl.1.0.0.UPF
  N  14 N.pbe-n-kjpaw_psl.1.0.0.UPF
  C1 12 C.pbe-n-kjpaw_psl.1.0.0.UPF
  C2 12 C.pbe-n-kjpaw_psl.1.0.0.UPF
  C3 12 C.pbe-n-kjpaw_psl.1.0.0.UPF

ATOMIC_POSITIONS {crystal}
B        0.047255218   0.094691350   0.500000000
B        0.047377705   0.237804645   0.500000000
B        0.047331019   0.380936973   0.500000000
B        0.047164829   0.523754495   0.500000000
B        0.047605284   0.666678858   0.500000000
B        0.047865818   0.809659884   0.500000000
B        0.047679265   0.952320573   0.500000000
B        0.189900973   0.094314917   0.500000000
B        0.189156977   0.236423105   0.500000000
B        0.190095976   0.380740783   0.500000000
B        0.189438105   0.523783473   0.500000000
B        0.189636493   0.666864574   0.500000000
B        0.190311149   0.809688675   0.500000000
B        0.190339962   0.952134042   0.500000000
B        0.333220179   0.094349023   0.500000000
B        0.332637649   0.235945161   0.500000000
B        0.331121136   0.376771376   0.500000000
B        0.332171789   0.525275217   0.500000000
B        0.331908941   0.668090973   0.500000000
B        0.333135313   0.810363372   0.500000000
B        0.333321088   0.952394626   0.500000000
B        0.476268612   0.095160586   0.500000000
B        0.476082697   0.237668638   0.500000000
B        0.475062449   0.379724569   0.500000000
C2       0.477698819   0.522301255   0.500000000
B        0.474724787   0.667828202   0.500000000
B        0.476216532   0.810561853   0.500000000
B        0.476245562   0.952835128   0.500000000
B        0.618992285   0.095267885   0.500000000
B        0.619061095   0.238009122   0.500000000
B        0.619093182   0.380906893   0.500000000
B        0.620275501   0.524937633   0.500000000
B        0.623228729   0.668878925   0.500000000
B        0.619259313   0.809904045   0.500000000
B        0.619063097   0.952668969   0.500000000
B        0.761879161   0.095277212   0.500000000
B        0.761865826   0.238134181   0.500000000
B        0.761990907   0.380938975   0.500000000
B        0.762331430   0.523917392   0.500000000
B        0.764054952   0.667362432   0.500000000
B        0.763576974   0.810843038   0.500000000
B        0.762195368   0.952622233   0.500000000
B        0.904824652   0.095175295   0.500000000
B        0.904722747   0.238120837   0.500000000
B        0.904732119   0.381007798   0.500000000
B        0.904839448   0.523731487   0.500000000
B        0.905650996   0.666779839   0.500000000
B        0.905685070   0.810098965   0.500000000
B        0.905308590   0.952744663   0.500000000
N        0.094929827   0.047204541   0.500000000
N        0.094371669   0.189578210   0.500000000
N        0.094924478   0.333167465   0.500000000
N        0.094495066   0.476075621   0.500000000
N        0.094693439   0.618938685   0.500000000
N        0.095225522   0.761916638   0.500000000
N        0.095274878   0.904725367   0.500000000
N        0.237951648   0.047109046   0.500000000
N        0.237299021   0.189181159   0.500000000
N        0.236406032   0.331316890   0.500000000
N        0.236971832   0.476288076   0.500000000
N        0.236829139   0.619307787   0.500000000
N        0.237812245   0.762187826   0.500000000
N        0.238083480   0.904774645   0.500000000
N        0.381122747   0.047360669   0.500000000
N        0.380946873   0.189250220   0.500000000
N        0.379901516   0.330239249   0.500000000
C1       0.382320152   0.475643639   0.500000000
N        0.378983401   0.621016614   0.500000000
N        0.380692192   0.763170892   0.500000000
N        0.381061329   0.905306666   0.500000000
N        0.523939106   0.047868811   0.500000000
N        0.523932741   0.190458815   0.500000000
N        0.523695971   0.333431442   0.500000000
N        0.523338283   0.476661719   0.500000000
C3       0.524356352   0.617679803   0.500000000
N        0.523711925   0.763028164   0.500000000
N        0.523924350   0.905504999   0.500000000
N        0.666702976   0.047820131   0.500000000
N        0.666665409   0.190517177   0.500000000
N        0.666616263   0.333383669   0.500000000
N        0.666568504   0.476303988   0.500000000
N        0.669760645   0.620098446   0.500000000
N        0.668683031   0.763593917   0.500000000
N        0.666832484   0.905075540   0.500000000
N        0.809613303   0.047762763   0.500000000
N        0.809480027   0.190519913   0.500000000
N        0.809482732   0.333334503   0.500000000
N        0.809541072   0.476067156   0.500000000
N        0.810749642   0.619053039   0.500000000
N        0.810818750   0.762700965   0.500000000
N        0.810421792   0.905628410   0.500000000
N        0.952388086   0.047612095   0.500000000
N        0.952237283   0.190386694   0.500000000
N        0.952179864   0.333296952   0.500000000
N        0.952131157   0.476060814   0.500000000
N        0.952639315   0.618877219   0.500000000
N        0.952891023   0.762048416   0.500000000
N        0.952795655   0.905070390   0.500000000


K_POINTS gamma 

CELL_PARAMETERS alat
   1.001012237   0.000222826   0.000000000
  -0.500313146   0.867013445   0.000000000
   0.000000000   0.000000000   1.137203616


OCCUPATIONS
  1.0 1.0 1.0 1.0 1.0 1.0 1.0 1.0
  1.0 1.0 1.0 1.0 1.0 1.0 1.0 1.0
  1.0 1.0 1.0 1.0 1.0 1.0 1.0 1.0
  1.0 1.0 1.0 1.0 1.0 1.0 1.0 1.0
  1.0 1.0 1.0 1.0 1.0 1.0 1.0 1.0
  1.0 1.0 1.0 1.0 1.0 1.0 1.0 1.0
  1.0 1.0 1.0 1.0 1.0 1.0 1.0 1.0
  1.0 1.0 1.0 1.0 1.0 1.0 1.0 1.0
  1.0 1.0 1.0 1.0 1.0 1.0 1.0 1.0
  1.0 1.0 1.0 1.0 1.0 1.0 1.0 1.0
  1.0 1.0 1.0 1.0 1.0 1.0 1.0 1.0
  1.0 1.0 1.0 1.0 1.0 1.0 1.0 1.0
  1.0 1.0 1.0 1.0 1.0 1.0 1.0 1.0
  1.0 1.0 1.0 1.0 1.0 1.0 1.0 1.0
  1.0 1.0 1.0 1.0 1.0 1.0 1.0 1.0
  1.0 1.0 1.0 1.0 1.0 1.0 1.0 1.0
  1.0 1.0 1.0 1.0 1.0 1.0 1.0 1.0
  1.0 1.0 1.0 1.0 1.0 1.0 1.0 1.0
  1.0 1.0 1.0 1.0 1.0 1.0 1.0 1.0
  1.0 1.0 1.0 1.0 1.0 1.0 1.0 1.0
  1.0 1.0 1.0 1.0 1.0 1.0 1.0 1.0
  1.0 1.0 1.0 1.0 1.0 1.0 1.0 1.0
  1.0 1.0 1.0 1.0 1.0 1.0 1.0 1.0
  1.0 1.0 1.0 1.0 1.0 1.0 1.0 1.0
  1.0 1.0 1.0 1.0 1.0 0.0 0.0 0.0
  0.0 0.0 0.0 0.0 0.0 0.0 0.0 0.0
  0.0 0.0 0.0 0.0 0.0 0.0 0.0 0.0
  0.0 0.0 0.0 0.0 0.0 0.0 0.0 0.0
  0.0 0.0 0.0 0.0 0.0 0.0 0.0 0.0
  0.0 0.0 0.0 0.0 0.0 0.0 0.0 0.0
  0.0 0.0 0.0 0.0 0.0
  1.0 1.0 1.0 1.0 1.0 1.0 1.0 1.0
  1.0 1.0 1.0 1.0 1.0 1.0 1.0 1.0
  1.0 1.0 1.0 1.0 1.0 1.0 1.0 1.0
  1.0 1.0 1.0 1.0 1.0 1.0 1.0 1.0
  1.0 1.0 1.0 1.0 1.0 1.0 1.0 1.0
  1.0 1.0 1.0 1.0 1.0 1.0 1.0 1.0
  1.0 1.0 1.0 1.0 1.0 1.0 1.0 1.0
  1.0 1.0 1.0 1.0 1.0 1.0 1.0 1.0
  1.0 1.0 1.0 1.0 1.0 1.0 1.0 1.0
  1.0 1.0 1.0 1.0 1.0 1.0 1.0 1.0
  1.0 1.0 1.0 1.0 1.0 1.0 1.0 1.0
  1.0 1.0 1.0 1.0 1.0 1.0 1.0 1.0
  1.0 1.0 1.0 1.0 1.0 1.0 1.0 1.0
  1.0 1.0 1.0 1.0 1.0 1.0 1.0 1.0
  1.0 1.0 1.0 1.0 1.0 1.0 1.0 1.0
  1.0 1.0 1.0 1.0 1.0 1.0 1.0 1.0
  1.0 1.0 1.0 1.0 1.0 1.0 1.0 1.0
  1.0 1.0 1.0 1.0 1.0 1.0 1.0 1.0
  1.0 1.0 1.0 1.0 1.0 1.0 1.0 1.0
  1.0 1.0 1.0 1.0 1.0 1.0 1.0 1.0
  1.0 1.0 1.0 1.0 1.0 1.0 1.0 1.0
  1.0 1.0 1.0 1.0 1.0 1.0 1.0 1.0
  1.0 1.0 1.0 1.0 1.0 1.0 1.0 1.0
  1.0 1.0 1.0 1.0 1.0 1.0 1.0 1.0
  1.0 1.0 0.0 0.0 0.0 0.0 0.0 0.0
  0.0 0.0 0.0 0.0 0.0 0.0 0.0 0.0
  0.0 0.0 0.0 0.0 0.0 0.0 0.0 0.0
  0.0 0.0 0.0 0.0 0.0 0.0 0.0 0.0
  0.0 0.0 0.0 0.0 0.0 0.0 0.0 0.0
  0.0 0.0 0.0 0.0 0.0 0.0 0.0 0.0
  0.0 0.0 0.0 0.0 0.0
  
