&CONTROL
	calculation = 'scf'
	restart_mode = 'from_scratch'
	prefix = 'C2Cn'
	pseudo_dir ='./pseudo/'
	outdir='./TMP_DIR/'
	etot_conv_thr = 1.0E-2
/
&SYSTEM
	ibrav = 0,
	celldm(1) = 33.23461096
	nat= 98,
	ntyp= 5,
	ecutwfc = 25.73
	nbnd = 245,
	occupations = 'from_input' 
	nspin = 2
	starting_magnetization(3) = 1
	input_dft='hse', nqx1 = 1, nqx2 = 1, nqx3 = 1, 	! HSE06
    	x_gamma_extrapolation = .true.,
    	exxdiv_treatment = 'gygi-baldereschi',
    	nosym = .true., noinv = .true
	vdw_corr = 'Grimme-D3'
	exx_fraction = 0.32
	screening_parameter = 0.0455 
/
&ELECTRONS
	diagonalization = 'cg'
	conv_thr = 1.0E-2	
/
ATOMIC_SPECIES
  B  10 B.pbe-n-kjpaw_psl.1.0.0.UPF
  N  14 N.pbe-n-kjpaw_psl.1.0.0.UPF
  C1 12 C.pbe-n-kjpaw_psl.1.0.0.UPF
  C2 12 C.pbe-n-kjpaw_psl.1.0.0.UPF
  C3 12 C.pbe-n-kjpaw_psl.1.0.0.UPF

ATOMIC_POSITIONS (crystal)
B        0.047274180   0.094690307   0.500000000
B        0.047306717   0.237723977   0.500000000
B        0.047258719   0.380861692   0.500000000
B        0.047177170   0.523749456   0.500000000
B        0.047620837   0.666630828   0.500000000
B        0.047896712   0.809628721   0.500000000
B        0.047699029   0.952300981   0.500000000
B        0.189916670   0.094342882   0.500000000
B        0.189205950   0.236517640   0.500000000
B        0.190031209   0.380692184   0.500000000
B        0.189467428   0.523635667   0.500000000
B        0.189634812   0.666772211   0.500000000
B        0.190348065   0.809651941   0.500000000
B        0.190371284   0.952103293   0.500000000
B        0.333213586   0.094355872   0.500000000
B        0.332727174   0.236126587   0.500000000
B        0.331519775   0.377330639   0.500000000
B        0.332318490   0.524943042   0.500000000
B        0.331908783   0.668091223   0.500000000
B        0.333227796   0.810365190   0.500000000
B        0.333369175   0.952379164   0.500000000
B        0.476256592   0.095152105   0.500000000
B        0.476066437   0.237730565   0.500000000
B        0.475089225   0.379881221   0.500000000
C2       0.477386003   0.522613982   0.500000000
B        0.475056963   0.667681513   0.500000000
B        0.476364336   0.810532572   0.500000000
B        0.476250546   0.952822828   0.500000000
B        0.618992664   0.095303360   0.500000000
B        0.619004379   0.238025660   0.500000000
B        0.619052002   0.380948002   0.500000000
B        0.620118779   0.524910776   0.500000000
B        0.622669354   0.668480218   0.500000000
B        0.619307809   0.809968784   0.500000000
B        0.619138303   0.952741276   0.500000000
B        0.761869305   0.095322197   0.500000000
B        0.761822419   0.238177584   0.500000000
B        0.761974342   0.380995624   0.500000000
B        0.762269432   0.523933563   0.500000000
B        0.763873404   0.667272818   0.500000000
B        0.763482349   0.810794041   0.500000000
B        0.762276015   0.952693281   0.500000000
B        0.904823736   0.095176267   0.500000000
B        0.904677805   0.238130694   0.500000000
B        0.904696640   0.381007337   0.500000000
B        0.904847893   0.523743407   0.500000000
B        0.905644122   0.666786410   0.500000000
B        0.905657111   0.810083326   0.500000000
B        0.905309695   0.952725825   0.500000000
N        0.094961274   0.047205569   0.500000000
N        0.094401319   0.189598641   0.500000000
N        0.094836806   0.333099792   0.500000000
N        0.094541717   0.476040458   0.500000000
N        0.094730655   0.618916620   0.500000000
N        0.095282677   0.761889307   0.500000000
N        0.095306679   0.904693313   0.500000000
N        0.237939764   0.047085239   0.500000000
N        0.237303751   0.189235824   0.500000000
N        0.236506465   0.331466359   0.500000000
N        0.237010632   0.476193078   0.500000000
N        0.236810061   0.619236001   0.500000000
N        0.237881831   0.762118170   0.500000000
N        0.238110694   0.904717320   0.500000000
N        0.381100737   0.047344099   0.500000000
N        0.380919673   0.189289067   0.500000000
N        0.379993065   0.330356460   0.500000000
C1       0.382819756   0.476000253   0.500000000
N        0.378928869   0.621071123   0.500000000
N        0.380763996   0.763189939   0.500000000
N        0.381083383   0.905269349   0.500000000
N        0.523920091   0.047828253   0.500000000
N        0.523877247   0.190458023   0.500000000
N        0.523668681   0.333453911   0.500000000
N        0.523341764   0.476658229   0.500000000
C3       0.523999749   0.617180251   0.500000000
N        0.523806925   0.762989371   0.500000000
N        0.523959546   0.905458290   0.500000000
N        0.666698209   0.047857533   0.500000000
N        0.666620643   0.190549488   0.500000000
N        0.666572771   0.333427228   0.500000000
N        0.666546085   0.476331315   0.500000000
N        0.669643542   0.620006936   0.500000000
N        0.668533649   0.763493544   0.500000000
N        0.666900215   0.905163199   0.500000000
N        0.809608811   0.047791032   0.500000000
N        0.809444366   0.190555630   0.500000000
N        0.809450511   0.333379358   0.500000000
N        0.809541980   0.476122756   0.500000000
N        0.810710939   0.619080333   0.500000000
N        0.810764182   0.762696257   0.500000000
N        0.810401360   0.905598682   0.500000000
N        0.952395439   0.047604546   0.500000000
N        0.952208962   0.190391185   0.500000000
N        0.952142468   0.333301794   0.500000000
N        0.952171750   0.476079914   0.500000000
N        0.952655904   0.618899270   0.500000000
N        0.952914759   0.762060239   0.500000000
N        0.952794422   0.905038719   0.500000000

K_POINTS gamma

CELL_PARAMETERS alat
   1.001011806   0.000172413   0.000000000
  -0.500356589   0.866987861   0.000000000
   0.000000000   0.000000000   1.137203616

OCCUPATIONS
  1.0 1.0 1.0 1.0 1.0 1.0 1.0 1.0
  1.0 1.0 1.0 1.0 1.0 1.0 1.0 1.0
  1.0 1.0 1.0 1.0 1.0 1.0 1.0 1.0
  1.0 1.0 1.0 1.0 1.0 1.0 1.0 1.0
  1.0 1.0 1.0 1.0 1.0 1.0 1.0 1.0
  1.0 1.0 1.0 1.0 1.0 1.0 1.0 1.0
  1.0 1.0 1.0 1.0 1.0 1.0 1.0 1.0
  1.0 1.0 1.0 1.0 1.0 1.0 1.0 1.0
  1.0 1.0 1.0 1.0 1.0 1.0 1.0 1.0
  1.0 1.0 1.0 1.0 1.0 1.0 1.0 1.0
  1.0 1.0 1.0 1.0 1.0 1.0 1.0 1.0
  1.0 1.0 1.0 1.0 1.0 1.0 1.0 1.0
  1.0 1.0 1.0 1.0 1.0 1.0 1.0 1.0
  1.0 1.0 1.0 1.0 1.0 1.0 1.0 1.0
  1.0 1.0 1.0 1.0 1.0 1.0 1.0 1.0
  1.0 1.0 1.0 1.0 1.0 1.0 1.0 1.0
  1.0 1.0 1.0 1.0 1.0 1.0 1.0 1.0
  1.0 1.0 1.0 1.0 1.0 1.0 1.0 1.0
  1.0 1.0 1.0 1.0 1.0 1.0 1.0 1.0
  1.0 1.0 1.0 1.0 1.0 1.0 1.0 1.0
  1.0 1.0 1.0 1.0 1.0 1.0 1.0 1.0
  1.0 1.0 1.0 1.0 1.0 1.0 1.0 1.0
  1.0 1.0 1.0 1.0 1.0 1.0 1.0 1.0
  1.0 1.0 1.0 1.0 1.0 1.0 1.0 1.0
  1.0 1.0 1.0 0.0 1.0 0.0 0.0 0.0
  0.0 0.0 0.0 0.0 0.0 0.0 0.0 0.0
  0.0 0.0 0.0 0.0 0.0 0.0 0.0 0.0
  0.0 0.0 0.0 0.0 0.0 0.0 0.0 0.0
  0.0 0.0 0.0 0.0 0.0 0.0 0.0 0.0
  0.0 0.0 0.0 0.0 0.0 0.0 0.0 0.0
  0.0 0.0 0.0 0.0 0.0
  1.0 1.0 1.0 1.0 1.0 1.0 1.0 1.0
  1.0 1.0 1.0 1.0 1.0 1.0 1.0 1.0
  1.0 1.0 1.0 1.0 1.0 1.0 1.0 1.0
  1.0 1.0 1.0 1.0 1.0 1.0 1.0 1.0
  1.0 1.0 1.0 1.0 1.0 1.0 1.0 1.0
  1.0 1.0 1.0 1.0 1.0 1.0 1.0 1.0
  1.0 1.0 1.0 1.0 1.0 1.0 1.0 1.0
  1.0 1.0 1.0 1.0 1.0 1.0 1.0 1.0
  1.0 1.0 1.0 1.0 1.0 1.0 1.0 1.0
  1.0 1.0 1.0 1.0 1.0 1.0 1.0 1.0
  1.0 1.0 1.0 1.0 1.0 1.0 1.0 1.0
  1.0 1.0 1.0 1.0 1.0 1.0 1.0 1.0
  1.0 1.0 1.0 1.0 1.0 1.0 1.0 1.0
  1.0 1.0 1.0 1.0 1.0 1.0 1.0 1.0
  1.0 1.0 1.0 1.0 1.0 1.0 1.0 1.0
  1.0 1.0 1.0 1.0 1.0 1.0 1.0 1.0
  1.0 1.0 1.0 1.0 1.0 1.0 1.0 1.0
  1.0 1.0 1.0 1.0 1.0 1.0 1.0 1.0
  1.0 1.0 1.0 1.0 1.0 1.0 1.0 1.0
  1.0 1.0 1.0 1.0 1.0 1.0 1.0 1.0
  1.0 1.0 1.0 1.0 1.0 1.0 1.0 1.0
  1.0 1.0 1.0 1.0 1.0 1.0 1.0 1.0
  1.0 1.0 1.0 1.0 1.0 1.0 1.0 1.0
  1.0 1.0 1.0 1.0 1.0 1.0 1.0 1.0
  1.0 1.0 0.0 1.0 0.0 0.0 0.0 0.0
  0.0 0.0 0.0 0.0 0.0 0.0 0.0 0.0
  0.0 0.0 0.0 0.0 0.0 0.0 0.0 0.0
  0.0 0.0 0.0 0.0 0.0 0.0 0.0 0.0
  0.0 0.0 0.0 0.0 0.0 0.0 0.0 0.0
  0.0 0.0 0.0 0.0 0.0 0.0 0.0 0.0
  0.0 0.0 0.0 0.0 0.0
  
