&CONTROL
	calculation = 'vc-relax'
	restart_mode = 'from_scratch'
	prefix = 'C2Cn'
	pseudo_dir ='./pseudo/'
	outdir='./TMP_DIR/'
	etot_conv_thr = 1.0E-6		
	forc_conv_thr = 1.94E-6
	tstress = .true.		
/
&SYSTEM
	ibrav = 0,
	celldm(1) = 33.23461096
	nat= 98,
	ntyp= 5,
	ecutwfc = 40.0
	nbnd = 245
	occupations = 'from_input' 
	nspin = 2,			! required for spin polarized calc
	starting_magnetization(3) = 1
	vdw_corr = 'Grimme-D3'
/
&ELECTRONS
	diagonalization = 'cg'
	conv_thr = 1.0E-12		! get to -12
/
&IONS
	ion_dynamics="bfgs"
/
&CELL
	cell_dofree = "2Dxy"
	cell_dynamics = 'bfgs'
	press = 0.0
	press_conv_thr = 0.1
	cell_factor = 4.0
/

ATOMIC_SPECIES
  B  10 B.pbe-n-kjpaw_psl.1.0.0.UPF
  N  14 N.pbe-n-kjpaw_psl.1.0.0.UPF
  C1 12 C.pbe-n-kjpaw_psl.1.0.0.UPF
  C2 12 C.pbe-n-kjpaw_psl.1.0.0.UPF
  C3 12 C.pbe-n-kjpaw_psl.1.0.0.UPF

ATOMIC_POSITIONS {crystal}
B        0.047370180   0.094774428   0.500000000
B        0.047561809   0.237850579   0.500000000
B        0.047476762   0.381062856   0.500000000
B        0.047185752   0.523844667   0.500000000
B        0.047456197   0.666695940   0.500000000
B        0.047766614   0.809662309   0.500000000
B        0.047658939   0.952340986   0.500000000
B        0.190064876   0.094519537   0.500000000
B        0.189527907   0.236866598   0.500000000
B        0.190408582   0.380788201   0.500000000
B        0.189489169   0.524310573   0.500000000
B        0.189458290   0.667033072   0.500000000
B        0.190229617   0.809769981   0.500000000
B        0.190337457   0.952233139   0.500000000
B        0.333361512   0.094595350   0.500000000
B        0.333039026   0.236311225   0.500000000
B        0.331782410   0.377246131   0.500000000
B        0.332579532   0.526923238   0.500000000
B        0.331611020   0.668388634   0.500000000
B        0.332966464   0.810541404   0.500000000
B        0.333303748   0.952543579   0.500000000
B        0.476323353   0.095158262   0.500000000
B        0.476433949   0.237858850   0.500000000
B        0.476519032   0.380812856   0.500000000
C2       0.477771053   0.522229910   0.500000000
B        0.473076478   0.667420536   0.500000000
B        0.475689074   0.810510770   0.500000000
B        0.476155096   0.952814228   0.500000000
B        0.619009751   0.095163354   0.500000000
B        0.619229402   0.237933138   0.500000000
B        0.619317590   0.380682689   0.500000000
B        0.619187292   0.523481205   0.500000000
B        0.622754084   0.668217976   0.500000000
B        0.619211676   0.809591663   0.500000000
B        0.618936986   0.952523401   0.500000000
B        0.761915927   0.095150158   0.500000000
B        0.761967740   0.238032508   0.500000000
B        0.762067167   0.380770847   0.500000000
B        0.762141274   0.523566196   0.500000000
B        0.763688831   0.666961193   0.500000000
B        0.763133432   0.810472352   0.500000000
B        0.762149410   0.952438395   0.500000000
B        0.904885044   0.095115063   0.500000000
B        0.904850031   0.238084144   0.500000000
B        0.904836852   0.380990297   0.500000000
B        0.904841814   0.523676635   0.500000000
B        0.905404556   0.666638442   0.500000000
B        0.905480414   0.809935173   0.500000000
B        0.905225626   0.952629940   0.500000000
N        0.095031139   0.047333603   0.500000000
N        0.094645441   0.189797673   0.500000000
N        0.095346343   0.333407682   0.500000000
N        0.094610694   0.476195478   0.500000000
N        0.094548737   0.619006048   0.500000000
N        0.095084759   0.761984347   0.500000000
N        0.095213820   0.904785953   0.500000000
N        0.238002039   0.047312790   0.500000000
N        0.237653092   0.189609942   0.500000000
N        0.236941792   0.331801871   0.500000000
N        0.237738285   0.476901217   0.500000000
N        0.236411202   0.619462397   0.500000000
N        0.237631191   0.762368406   0.500000000
N        0.238015327   0.904914905   0.500000000
N        0.381124125   0.047486882   0.500000000
N        0.381074560   0.189485901   0.500000000
N        0.380437056   0.331031655   0.500000000
C1       0.384279179   0.477209311   0.500000000
N        0.378181544   0.621818475   0.500000000
N        0.380537305   0.763588545   0.500000000
N        0.380993654   0.905451021   0.500000000
N        0.523938445   0.047802868   0.500000000
N        0.524024454   0.190395296   0.500000000
N        0.524121076   0.333269526   0.500000000
N        0.524176843   0.475823341   0.500000000
C3       0.522790425   0.615720476   0.500000000
N        0.523098574   0.762261707   0.500000000
N        0.523804299   0.905389247   0.500000000
N        0.666672367   0.047592624   0.500000000
N        0.666773441   0.190334694   0.500000000
N        0.666899628   0.333100660   0.500000000
N        0.666730674   0.475879175   0.500000000
N        0.668968282   0.619563256   0.500000000
N        0.668198055   0.763058429   0.500000000
N        0.666592184   0.904653766   0.500000000
N        0.809595001   0.047587981   0.500000000
N        0.809590488   0.190409671   0.500000000
N        0.809665546   0.333226735   0.500000000
N        0.809604858   0.475975722   0.500000000
N        0.810514043   0.618925603   0.500000000
N        0.810389905   0.762347025   0.500000000
N        0.810202267   0.905354687   0.500000000
N        0.952425936   0.047574124   0.500000000
N        0.952412154   0.190405035   0.500000000
N        0.952407518   0.333327616   0.500000000
N        0.952197180   0.476061518   0.500000000
N        0.952512998   0.618875795   0.500000000
N        0.952686986   0.761997870   0.500000000
N        0.952666291   0.904968844   0.500000000


K_POINTS gamma 

CELL_PARAMETERS alat
   1.001327655  -0.000545319   0.000000000
  -0.501136084   0.866902413   0.000000000
   0.000000000   0.000000000   1.137203616

OCCUPATIONS
  1.0 1.0 1.0 1.0 1.0 1.0 1.0 1.0
  1.0 1.0 1.0 1.0 1.0 1.0 1.0 1.0
  1.0 1.0 1.0 1.0 1.0 1.0 1.0 1.0
  1.0 1.0 1.0 1.0 1.0 1.0 1.0 1.0
  1.0 1.0 1.0 1.0 1.0 1.0 1.0 1.0
  1.0 1.0 1.0 1.0 1.0 1.0 1.0 1.0
  1.0 1.0 1.0 1.0 1.0 1.0 1.0 1.0
  1.0 1.0 1.0 1.0 1.0 1.0 1.0 1.0
  1.0 1.0 1.0 1.0 1.0 1.0 1.0 1.0
  1.0 1.0 1.0 1.0 1.0 1.0 1.0 1.0
  1.0 1.0 1.0 1.0 1.0 1.0 1.0 1.0
  1.0 1.0 1.0 1.0 1.0 1.0 1.0 1.0
  1.0 1.0 1.0 1.0 1.0 1.0 1.0 1.0
  1.0 1.0 1.0 1.0 1.0 1.0 1.0 1.0
  1.0 1.0 1.0 1.0 1.0 1.0 1.0 1.0
  1.0 1.0 1.0 1.0 1.0 1.0 1.0 1.0
  1.0 1.0 1.0 1.0 1.0 1.0 1.0 1.0
  1.0 1.0 1.0 1.0 1.0 1.0 1.0 1.0
  1.0 1.0 1.0 1.0 1.0 1.0 1.0 1.0
  1.0 1.0 1.0 1.0 1.0 1.0 1.0 1.0
  1.0 1.0 1.0 1.0 1.0 1.0 1.0 1.0
  1.0 1.0 1.0 1.0 1.0 1.0 1.0 1.0
  1.0 1.0 1.0 1.0 1.0 1.0 1.0 1.0
  1.0 1.0 1.0 1.0 1.0 1.0 1.0 1.0
  1.0 1.0 1.0 0.0 1.0 0.0 0.0 0.0
  0.0 0.0 0.0 0.0 0.0 0.0 0.0 0.0
  0.0 0.0 0.0 0.0 0.0 0.0 0.0 0.0
  0.0 0.0 0.0 0.0 0.0 0.0 0.0 0.0
  0.0 0.0 0.0 0.0 0.0 0.0 0.0 0.0
  0.0 0.0 0.0 0.0 0.0 0.0 0.0 0.0
  0.0 0.0 0.0 0.0 0.0
  1.0 1.0 1.0 1.0 1.0 1.0 1.0 1.0
  1.0 1.0 1.0 1.0 1.0 1.0 1.0 1.0
  1.0 1.0 1.0 1.0 1.0 1.0 1.0 1.0
  1.0 1.0 1.0 1.0 1.0 1.0 1.0 1.0
  1.0 1.0 1.0 1.0 1.0 1.0 1.0 1.0
  1.0 1.0 1.0 1.0 1.0 1.0 1.0 1.0
  1.0 1.0 1.0 1.0 1.0 1.0 1.0 1.0
  1.0 1.0 1.0 1.0 1.0 1.0 1.0 1.0
  1.0 1.0 1.0 1.0 1.0 1.0 1.0 1.0
  1.0 1.0 1.0 1.0 1.0 1.0 1.0 1.0
  1.0 1.0 1.0 1.0 1.0 1.0 1.0 1.0
  1.0 1.0 1.0 1.0 1.0 1.0 1.0 1.0
  1.0 1.0 1.0 1.0 1.0 1.0 1.0 1.0
  1.0 1.0 1.0 1.0 1.0 1.0 1.0 1.0
  1.0 1.0 1.0 1.0 1.0 1.0 1.0 1.0
  1.0 1.0 1.0 1.0 1.0 1.0 1.0 1.0
  1.0 1.0 1.0 1.0 1.0 1.0 1.0 1.0
  1.0 1.0 1.0 1.0 1.0 1.0 1.0 1.0
  1.0 1.0 1.0 1.0 1.0 1.0 1.0 1.0
  1.0 1.0 1.0 1.0 1.0 1.0 1.0 1.0
  1.0 1.0 1.0 1.0 1.0 1.0 1.0 1.0
  1.0 1.0 1.0 1.0 1.0 1.0 1.0 1.0
  1.0 1.0 1.0 1.0 1.0 1.0 1.0 1.0
  1.0 1.0 1.0 1.0 1.0 1.0 1.0 1.0
  1.0 1.0 1.0 0.0 0.0 0.0 0.0 0.0
  0.0 0.0 0.0 0.0 0.0 0.0 0.0 0.0
  0.0 0.0 0.0 0.0 0.0 0.0 0.0 0.0
  0.0 0.0 0.0 0.0 0.0 0.0 0.0 0.0
  0.0 0.0 0.0 0.0 0.0 0.0 0.0 0.0
  0.0 0.0 0.0 0.0 0.0 0.0 0.0 0.0
  0.0 0.0 0.0 0.0 0.0
  
