&CONTROL
	calculation = 'scf'
	restart_mode = 'from_scratch'
	prefix = 'C2Cn'
	pseudo_dir ='./pseudo/'
	outdir='./TMP_DIR/'
/
&SYSTEM
	ibrav = 0,
	celldm(1) = 33.23461096
	nat= 98,
	ntyp= 5,
	ecutwfc = 25.73 
	nbnd = 245,
	occupations = 'from_input' 
	nspin = 2
	starting_magnetization(3) = 1
	input_dft='hse', nqx1 = 1, nqx2 = 1, nqx3 = 1, 	! HSE06
    	x_gamma_extrapolation = .true.,
    	exxdiv_treatment = 'gygi-baldereschi',
    	nosym = .true., noinv = .true
	vdw_corr = 'Grimme-D3'
	exx_fraction = 0.32
	screening_parameter = 0.0455 
/
&ELECTRONS
	diagonalization = 'cg'
	conv_thr = 1.0E-3	
/
ATOMIC_SPECIES
  B  10 B.pbe-n-kjpaw_psl.1.0.0.UPF
  N  14 N.pbe-n-kjpaw_psl.1.0.0.UPF
  C1 12 C.pbe-n-kjpaw_psl.1.0.0.UPF
  C2 12 C.pbe-n-kjpaw_psl.1.0.0.UPF
  C3 12 C.pbe-n-kjpaw_psl.1.0.0.UPF

ATOMIC_POSITIONS (crystal)
B        0.047259693   0.094667442   0.500000000
B        0.047318440   0.237769990   0.500000000
B        0.047281981   0.380903825   0.500000000
B        0.047200763   0.523754654   0.500000000
B        0.047666450   0.666629470   0.500000000
B        0.047948386   0.809616902   0.500000000
B        0.047715721   0.952284327   0.500000000
B        0.189875505   0.094272391   0.500000000
B        0.189157005   0.236436019   0.500000000
B        0.190046313   0.380743742   0.500000000
B        0.189483879   0.523729645   0.500000000
B        0.189674875   0.666775741   0.500000000
B        0.190386703   0.809613047   0.500000000
B        0.190382934   0.952051535   0.500000000
B        0.333174409   0.094255761   0.500000000
B        0.332542392   0.235897646   0.500000000
B        0.331310190   0.377101955   0.500000000
B        0.332351567   0.525249595   0.500000000
B        0.331934897   0.668065022   0.500000000
B        0.333224135   0.810324885   0.500000000
B        0.333370427   0.952333433   0.500000000
B        0.476244353   0.095117294   0.500000000
B        0.475996474   0.237637812   0.500000000
B        0.474728662   0.379473233   0.500000000
C2       0.477581629   0.522418365   0.500000000
B        0.474750369   0.667648398   0.500000000
B        0.476270330   0.810516024   0.500000000
B        0.476245416   0.952799176   0.500000000
B        0.618974685   0.095293282   0.500000000
B        0.618983403   0.238015145   0.500000000
B        0.619036982   0.380963058   0.500000000
B        0.620526748   0.525271280   0.500000000
B        0.622898023   0.668689731   0.500000000
B        0.619256211   0.809953616   0.500000000
B        0.619096226   0.952718039   0.500000000
B        0.761852705   0.095320549   0.500000000
B        0.761817622   0.238182504   0.500000000
B        0.761984978   0.381016742   0.500000000
B        0.762362289   0.524003542   0.500000000
B        0.764102424   0.667457493   0.500000000
B        0.763563947   0.810842854   0.500000000
B        0.762230042   0.952681605   0.500000000
B        0.904814674   0.095185472   0.500000000
B        0.904679561   0.238147392   0.500000000
B        0.904706833   0.381025497   0.500000000
B        0.904882815   0.523755760   0.500000000
B        0.905744357   0.666825520   0.500000000
B        0.905727693   0.810124382   0.500000000
B        0.905332704   0.952740394   0.500000000
N        0.094941054   0.047171138   0.500000000
N        0.094392947   0.189591399   0.500000000
N        0.094867085   0.333131756   0.500000000
N        0.094525656   0.476039917   0.500000000
N        0.094731831   0.618903324   0.500000000
N        0.095298098   0.761874634   0.500000000
N        0.095328226   0.904671948   0.500000000
N        0.237938515   0.047043130   0.500000000
N        0.237223684   0.189123385   0.500000000
N        0.236495839   0.331412233   0.500000000
N        0.237075491   0.476254175   0.500000000
N        0.236786125   0.619232200   0.500000000
N        0.237877595   0.762122642   0.500000000
N        0.238125639   0.904702153   0.500000000
N        0.381109370   0.047324351   0.500000000
N        0.380896540   0.189224109   0.500000000
N        0.379842084   0.330147749   0.500000000
C1       0.382795877   0.475904675   0.500000000
N        0.378910022   0.621089971   0.500000000
N        0.380767848   0.763214027   0.500000000
N        0.381096754   0.905268403   0.500000000
N        0.523923952   0.047848960   0.500000000
N        0.523865349   0.190477596   0.500000000
N        0.523598499   0.333504161   0.500000000
N        0.523087296   0.476912657   0.500000000
C3       0.524095315   0.617204093   0.500000000
N        0.523745862   0.762924576   0.500000000
N        0.523960071   0.905474498   0.500000000
N        0.666686697   0.047861492   0.500000000
N        0.666602711   0.190576040   0.500000000
N        0.666522760   0.333477059   0.500000000
N        0.666495694   0.476401436   0.500000000
N        0.669852180   0.620157918   0.500000000
N        0.668587849   0.763504246   0.500000000
N        0.666868319   0.905132979   0.500000000
N        0.809595978   0.047793667   0.500000000
N        0.809429464   0.190570418   0.500000000
N        0.809423814   0.333397110   0.500000000
N        0.809522218   0.476134505   0.500000000
N        0.810775711   0.619103479   0.500000000
N        0.810876549   0.762776411   0.500000000
N        0.810408563   0.905607050   0.500000000
N        0.952393039   0.047606772   0.500000000
N        0.952206224   0.190403943   0.500000000
N        0.952138474   0.333313220   0.500000000
N        0.952151037   0.476075909   0.500000000
N        0.952675634   0.618890679   0.500000000
N        0.952956856   0.762061663   0.500000000
N        0.952828776   0.905058969   0.500000000

K_POINTS gamma

CELL_PARAMETERS alat
   1.001022813   0.000197266   0.000000000
  -0.500340569   0.867009823   0.000000000
   0.000000000   0.000000000   1.137203616

OCCUPATIONS
  1.0 1.0 1.0 1.0 1.0 1.0 1.0 1.0
  1.0 1.0 1.0 1.0 1.0 1.0 1.0 1.0
  1.0 1.0 1.0 1.0 1.0 1.0 1.0 1.0
  1.0 1.0 1.0 1.0 1.0 1.0 1.0 1.0
  1.0 1.0 1.0 1.0 1.0 1.0 1.0 1.0
  1.0 1.0 1.0 1.0 1.0 1.0 1.0 1.0
  1.0 1.0 1.0 1.0 1.0 1.0 1.0 1.0
  1.0 1.0 1.0 1.0 1.0 1.0 1.0 1.0
  1.0 1.0 1.0 1.0 1.0 1.0 1.0 1.0
  1.0 1.0 1.0 1.0 1.0 1.0 1.0 1.0
  1.0 1.0 1.0 1.0 1.0 1.0 1.0 1.0
  1.0 1.0 1.0 1.0 1.0 1.0 1.0 1.0
  1.0 1.0 1.0 1.0 1.0 1.0 1.0 1.0
  1.0 1.0 1.0 1.0 1.0 1.0 1.0 1.0
  1.0 1.0 1.0 1.0 1.0 1.0 1.0 1.0
  1.0 1.0 1.0 1.0 1.0 1.0 1.0 1.0
  1.0 1.0 1.0 1.0 1.0 1.0 1.0 1.0
  1.0 1.0 1.0 1.0 1.0 1.0 1.0 1.0
  1.0 1.0 1.0 1.0 1.0 1.0 1.0 1.0
  1.0 1.0 1.0 1.0 1.0 1.0 1.0 1.0
  1.0 1.0 1.0 1.0 1.0 1.0 1.0 1.0
  1.0 1.0 1.0 1.0 1.0 1.0 1.0 1.0
  1.0 1.0 1.0 1.0 1.0 1.0 1.0 1.0
  1.0 1.0 1.0 1.0 1.0 1.0 1.0 1.0
  1.0 1.0 1.0 1.0 0.0 0.0 0.0 0.0
  0.0 0.0 0.0 0.0 0.0 0.0 0.0 0.0
  0.0 0.0 0.0 0.0 0.0 0.0 0.0 0.0
  0.0 0.0 0.0 0.0 0.0 0.0 0.0 0.0
  0.0 0.0 0.0 0.0 0.0 0.0 0.0 0.0
  0.0 0.0 0.0 0.0 0.0 0.0 0.0 0.0
  0.0 0.0 0.0 0.0 0.0
  1.0 1.0 1.0 1.0 1.0 1.0 1.0 1.0
  1.0 1.0 1.0 1.0 1.0 1.0 1.0 1.0
  1.0 1.0 1.0 1.0 1.0 1.0 1.0 1.0
  1.0 1.0 1.0 1.0 1.0 1.0 1.0 1.0
  1.0 1.0 1.0 1.0 1.0 1.0 1.0 1.0
  1.0 1.0 1.0 1.0 1.0 1.0 1.0 1.0
  1.0 1.0 1.0 1.0 1.0 1.0 1.0 1.0
  1.0 1.0 1.0 1.0 1.0 1.0 1.0 1.0
  1.0 1.0 1.0 1.0 1.0 1.0 1.0 1.0
  1.0 1.0 1.0 1.0 1.0 1.0 1.0 1.0
  1.0 1.0 1.0 1.0 1.0 1.0 1.0 1.0
  1.0 1.0 1.0 1.0 1.0 1.0 1.0 1.0
  1.0 1.0 1.0 1.0 1.0 1.0 1.0 1.0
  1.0 1.0 1.0 1.0 1.0 1.0 1.0 1.0
  1.0 1.0 1.0 1.0 1.0 1.0 1.0 1.0
  1.0 1.0 1.0 1.0 1.0 1.0 1.0 1.0
  1.0 1.0 1.0 1.0 1.0 1.0 1.0 1.0
  1.0 1.0 1.0 1.0 1.0 1.0 1.0 1.0
  1.0 1.0 1.0 1.0 1.0 1.0 1.0 1.0
  1.0 1.0 1.0 1.0 1.0 1.0 1.0 1.0
  1.0 1.0 1.0 1.0 1.0 1.0 1.0 1.0
  1.0 1.0 1.0 1.0 1.0 1.0 1.0 1.0
  1.0 1.0 1.0 1.0 1.0 1.0 1.0 1.0
  1.0 1.0 1.0 1.0 1.0 1.0 1.0 1.0
  1.0 1.0 0.0 0.0 1.0 0.0 0.0 0.0
  0.0 0.0 0.0 0.0 0.0 0.0 0.0 0.0
  0.0 0.0 0.0 0.0 0.0 0.0 0.0 0.0
  0.0 0.0 0.0 0.0 0.0 0.0 0.0 0.0
  0.0 0.0 0.0 0.0 0.0 0.0 0.0 0.0
  0.0 0.0 0.0 0.0 0.0 0.0 0.0 0.0
  0.0 0.0 0.0 0.0 0.0

