&CONTROL
	calculation = 'vc-relax'
	restart_mode = 'from_scratch'
	prefix = 'C2Cn'
	pseudo_dir ='./pseudo/'
	outdir='./TMP_DIR/'
	etot_conv_thr = 1.0E-6		
	forc_conv_thr = 1.94E-6
	tstress = .true.		
/
&SYSTEM
	ibrav = 0,
	celldm(1) = 33.23461096
	nat= 98,
	ntyp= 5,
	ecutwfc = 40.0
	nbnd = 245
	occupations = 'from_input' 
	nspin = 2,			! required for spin polarized calc
	starting_magnetization(3) = 1
	vdw_corr = 'Grimme-D3'
/
&ELECTRONS
	diagonalization = 'cg'
	conv_thr = 1.0E-12		! get to -12
/
&IONS
	ion_dynamics="bfgs"
/
&CELL
	cell_dofree = "2Dxy"
	cell_dynamics = 'bfgs'
	press = 0.0
	press_conv_thr = 0.1
	cell_factor = 4.0
/

ATOMIC_SPECIES
  B  10 B.pbe-n-kjpaw_psl.1.0.0.UPF
  N  14 N.pbe-n-kjpaw_psl.1.0.0.UPF
  C1 12 C.pbe-n-kjpaw_psl.1.0.0.UPF
  C2 12 C.pbe-n-kjpaw_psl.1.0.0.UPF
  C3 12 C.pbe-n-kjpaw_psl.1.0.0.UPF

ATOMIC_POSITIONS {crystal}
B        0.047274060   0.094690733   0.500000000
B        0.047307167   0.237724500   0.500000000
B        0.047259505   0.380861984   0.500000000
B        0.047177551   0.523749602   0.500000000
B        0.047620352   0.666630273   0.500000000
B        0.047896113   0.809628289   0.500000000
B        0.047698808   0.952301200   0.500000000
B        0.189916844   0.094343524   0.500000000
B        0.189206172   0.236517807   0.500000000
B        0.190031692   0.380692160   0.500000000
B        0.189467424   0.523635768   0.500000000
B        0.189634597   0.666772406   0.500000000
B        0.190347903   0.809652102   0.500000000
B        0.190371714   0.952103889   0.500000000
B        0.333214072   0.094356256   0.500000000
B        0.332727459   0.236126717   0.500000000
B        0.331520117   0.377330294   0.500000000
B        0.332318703   0.524943098   0.500000000
B        0.331908463   0.668091546   0.500000000
B        0.333227603   0.810365405   0.500000000
B        0.333369731   0.952379650   0.500000000
B        0.476256984   0.095152368   0.500000000
B        0.476066230   0.237730776   0.500000000
B        0.475089617   0.379881053   0.500000000
C2       0.477386408   0.522613582   0.500000000
B        0.475056914   0.667681303   0.500000000
B        0.476364238   0.810532573   0.500000000
B        0.476250402   0.952822446   0.500000000
B        0.618992434   0.095302958   0.500000000
B        0.619004006   0.238025993   0.500000000
B        0.619051901   0.380948106   0.500000000
B        0.620118951   0.524910389   0.500000000
B        0.622669699   0.668479877   0.500000000
B        0.619307832   0.809968298   0.500000000
B        0.619138012   0.952740487   0.500000000
B        0.761869124   0.095321707   0.500000000
B        0.761822363   0.238177639   0.500000000
B        0.761974009   0.380995997   0.500000000
B        0.762269219   0.523933772   0.500000000
B        0.763873269   0.667272533   0.500000000
B        0.763482179   0.810793814   0.500000000
B        0.762275490   0.952692829   0.500000000
B        0.904823452   0.095176546   0.500000000
B        0.904678294   0.238130875   0.500000000
B        0.904697042   0.381007568   0.500000000
B        0.904847630   0.523743017   0.500000000
B        0.905643736   0.666785924   0.500000000
B        0.905656464   0.810083151   0.500000000
B        0.905309264   0.952725941   0.500000000
N        0.094961217   0.047206090   0.500000000
N        0.094401614   0.189599058   0.500000000
N        0.094837493   0.333100104   0.500000000
N        0.094542013   0.476040634   0.500000000
N        0.094730583   0.618916581   0.500000000
N        0.095282282   0.761888869   0.500000000
N        0.095306591   0.904693402   0.500000000
N        0.237940200   0.047086013   0.500000000
N        0.237304125   0.189236345   0.500000000
N        0.236506961   0.331466379   0.500000000
N        0.237010818   0.476193132   0.500000000
N        0.236809789   0.619236164   0.500000000
N        0.237881723   0.762118279   0.500000000
N        0.238111132   0.904717716   0.500000000
N        0.381101240   0.047344542   0.500000000
N        0.380919753   0.189289301   0.500000000
N        0.379993589   0.330356417   0.500000000
C1       0.382820125   0.476000057   0.500000000
N        0.378928710   0.621071281   0.500000000
N        0.380763832   0.763190212   0.500000000
N        0.381083421   0.905269421   0.500000000
N        0.523919882   0.047827915   0.500000000
N        0.523876986   0.190458238   0.500000000
N        0.523668789   0.333453906   0.500000000
N        0.523342127   0.476657866   0.500000000
C3       0.523999948   0.617179891   0.500000000
N        0.523806869   0.762989184   0.500000000
N        0.523959370   0.905457994   0.500000000
N        0.666697935   0.047856874   0.500000000
N        0.666620217   0.190549413   0.500000000
N        0.666572509   0.333427491   0.500000000
N        0.666546090   0.476331206   0.500000000
N        0.669643584   0.620006411   0.500000000
N        0.668533630   0.763493049   0.500000000
N        0.666899906   0.905162514   0.500000000
N        0.809608472   0.047790579   0.500000000
N        0.809444520   0.190555476   0.500000000
N        0.809450587   0.333379785   0.500000000
N        0.809541765   0.476123018   0.500000000
N        0.810710705   0.619080253   0.500000000
N        0.810763663   0.762695884   0.500000000
N        0.810400944   0.905598388   0.500000000
N        0.952395096   0.047604887   0.500000000
N        0.952209415   0.190391523   0.500000000
N        0.952143127   0.333302068   0.500000000
N        0.952172089   0.476080124   0.500000000
N        0.952655461   0.618898766   0.500000000
N        0.952913985   0.762059802   0.500000000
N        0.952793900   0.905038776   0.500000000


K_POINTS gamma 

CELL_PARAMETERS alat
   1.001013327   0.000172402   0.000000000
  -0.500357359   0.866989173   0.000000000
   0.000000000   0.000000000   1.137203616


OCCUPATIONS
  1.0 1.0 1.0 1.0 1.0 1.0 1.0 1.0
  1.0 1.0 1.0 1.0 1.0 1.0 1.0 1.0
  1.0 1.0 1.0 1.0 1.0 1.0 1.0 1.0
  1.0 1.0 1.0 1.0 1.0 1.0 1.0 1.0
  1.0 1.0 1.0 1.0 1.0 1.0 1.0 1.0
  1.0 1.0 1.0 1.0 1.0 1.0 1.0 1.0
  1.0 1.0 1.0 1.0 1.0 1.0 1.0 1.0
  1.0 1.0 1.0 1.0 1.0 1.0 1.0 1.0
  1.0 1.0 1.0 1.0 1.0 1.0 1.0 1.0
  1.0 1.0 1.0 1.0 1.0 1.0 1.0 1.0
  1.0 1.0 1.0 1.0 1.0 1.0 1.0 1.0
  1.0 1.0 1.0 1.0 1.0 1.0 1.0 1.0
  1.0 1.0 1.0 1.0 1.0 1.0 1.0 1.0
  1.0 1.0 1.0 1.0 1.0 1.0 1.0 1.0
  1.0 1.0 1.0 1.0 1.0 1.0 1.0 1.0
  1.0 1.0 1.0 1.0 1.0 1.0 1.0 1.0
  1.0 1.0 1.0 1.0 1.0 1.0 1.0 1.0
  1.0 1.0 1.0 1.0 1.0 1.0 1.0 1.0
  1.0 1.0 1.0 1.0 1.0 1.0 1.0 1.0
  1.0 1.0 1.0 1.0 1.0 1.0 1.0 1.0
  1.0 1.0 1.0 1.0 1.0 1.0 1.0 1.0
  1.0 1.0 1.0 1.0 1.0 1.0 1.0 1.0
  1.0 1.0 1.0 1.0 1.0 1.0 1.0 1.0
  1.0 1.0 1.0 1.0 1.0 1.0 1.0 1.0
  1.0 1.0 1.0 0.0 1.0 0.0 0.0 0.0
  0.0 0.0 0.0 0.0 0.0 0.0 0.0 0.0
  0.0 0.0 0.0 0.0 0.0 0.0 0.0 0.0
  0.0 0.0 0.0 0.0 0.0 0.0 0.0 0.0
  0.0 0.0 0.0 0.0 0.0 0.0 0.0 0.0
  0.0 0.0 0.0 0.0 0.0 0.0 0.0 0.0
  0.0 0.0 0.0 0.0 0.0
  1.0 1.0 1.0 1.0 1.0 1.0 1.0 1.0
  1.0 1.0 1.0 1.0 1.0 1.0 1.0 1.0
  1.0 1.0 1.0 1.0 1.0 1.0 1.0 1.0
  1.0 1.0 1.0 1.0 1.0 1.0 1.0 1.0
  1.0 1.0 1.0 1.0 1.0 1.0 1.0 1.0
  1.0 1.0 1.0 1.0 1.0 1.0 1.0 1.0
  1.0 1.0 1.0 1.0 1.0 1.0 1.0 1.0
  1.0 1.0 1.0 1.0 1.0 1.0 1.0 1.0
  1.0 1.0 1.0 1.0 1.0 1.0 1.0 1.0
  1.0 1.0 1.0 1.0 1.0 1.0 1.0 1.0
  1.0 1.0 1.0 1.0 1.0 1.0 1.0 1.0
  1.0 1.0 1.0 1.0 1.0 1.0 1.0 1.0
  1.0 1.0 1.0 1.0 1.0 1.0 1.0 1.0
  1.0 1.0 1.0 1.0 1.0 1.0 1.0 1.0
  1.0 1.0 1.0 1.0 1.0 1.0 1.0 1.0
  1.0 1.0 1.0 1.0 1.0 1.0 1.0 1.0
  1.0 1.0 1.0 1.0 1.0 1.0 1.0 1.0
  1.0 1.0 1.0 1.0 1.0 1.0 1.0 1.0
  1.0 1.0 1.0 1.0 1.0 1.0 1.0 1.0
  1.0 1.0 1.0 1.0 1.0 1.0 1.0 1.0
  1.0 1.0 1.0 1.0 1.0 1.0 1.0 1.0
  1.0 1.0 1.0 1.0 1.0 1.0 1.0 1.0
  1.0 1.0 1.0 1.0 1.0 1.0 1.0 1.0
  1.0 1.0 1.0 1.0 1.0 1.0 1.0 1.0
  1.0 1.0 0.0 1.0 0.0 0.0 0.0 0.0
  0.0 0.0 0.0 0.0 0.0 0.0 0.0 0.0
  0.0 0.0 0.0 0.0 0.0 0.0 0.0 0.0
  0.0 0.0 0.0 0.0 0.0 0.0 0.0 0.0
  0.0 0.0 0.0 0.0 0.0 0.0 0.0 0.0
  0.0 0.0 0.0 0.0 0.0 0.0 0.0 0.0
  0.0 0.0 0.0 0.0 0.0
  
