&CONTROL
	calculation = 'vc-relax'
	restart_mode = 'from_scratch'
	prefix = 'C2Cn'
	pseudo_dir ='./pseudo/'
	outdir='./TMP_DIR/'
	etot_conv_thr = 1.0E-6		
	forc_conv_thr = 1.94E-5
	tstress = .true.		
/
&SYSTEM
	ibrav = 0,
	celldm(1) = 33.23461096
	nat= 98,
	ntyp= 5,
	ecutwfc = 40.0
	nbnd = 245
	occupations = 'from_input' 
	nspin = 2,			! required for spin polarized calc
	starting_magnetization(3) = 1
	vdw_corr = 'Grimme-D3'
/
&ELECTRONS
	diagonalization = 'cg'
	conv_thr = 1.0E-10		! get to -12
/
&IONS
	ion_dynamics="bfgs"
/
&CELL
	cell_dofree = "2Dxy"
	cell_dynamics = 'bfgs'
	press = 0.0
	press_conv_thr = 0.1
	cell_factor = 4.0
/

ATOMIC_SPECIES
  B  10 B.pbe-n-kjpaw_psl.1.0.0.UPF
  N  14 N.pbe-n-kjpaw_psl.1.0.0.UPF
  C1 12 C.pbe-n-kjpaw_psl.1.0.0.UPF
  C2 12 C.pbe-n-kjpaw_psl.1.0.0.UPF
  C3 12 C.pbe-n-kjpaw_psl.1.0.0.UPF

ATOMIC_POSITIONS {crystal}
B        0.047274097   0.094700464   0.500000000
B        0.047315649   0.237729818   0.500000000
B        0.047266534   0.380874144   0.500000000
B        0.047191519   0.523772084   0.500000000
B        0.047627311   0.666653140   0.500000000
B        0.047880004   0.809644856   0.500000000
B        0.047685607   0.952314451   0.500000000
B        0.189917733   0.094365893   0.500000000
B        0.189212138   0.236531428   0.500000000
B        0.190023608   0.380699960   0.500000000
B        0.189460811   0.523651642   0.500000000
B        0.189637010   0.666792223   0.500000000
B        0.190333370   0.809666639   0.500000000
B        0.190355166   0.952120030   0.500000000
B        0.333208752   0.094354785   0.500000000
B        0.332744154   0.236132435   0.500000000
B        0.331523871   0.377327827   0.500000000
B        0.332306616   0.524944560   0.500000000
B        0.331900845   0.668099117   0.500000000
B        0.333207749   0.810362993   0.500000000
B        0.333346848   0.952372712   0.500000000
B        0.476247037   0.095130413   0.500000000
B        0.476074899   0.237712566   0.500000000
B        0.475110593   0.379871762   0.500000000
C2       0.477390981   0.522609057   0.500000000
B        0.475055411   0.667693362   0.500000000
B        0.476348347   0.810539185   0.500000000
B        0.476227902   0.952808497   0.500000000
B        0.618985898   0.095278215   0.500000000
B        0.619010341   0.237998873   0.500000000
B        0.619074771   0.380925210   0.500000000
B        0.620128206   0.524889364   0.500000000
B        0.622672185   0.668476117   0.500000000
B        0.619300053   0.809976391   0.500000000
B        0.619125858   0.952733488   0.500000000
B        0.761874004   0.095304119   0.500000000
B        0.761837818   0.238162207   0.500000000
B        0.762001123   0.380989643   0.500000000
B        0.762287423   0.523925069   0.500000000
B        0.763867559   0.667255835   0.500000000
B        0.763468555   0.810787853   0.500000000
B        0.762270207   0.952684386   0.500000000
B        0.904828140   0.095171904   0.500000000
B        0.904695930   0.238126036   0.500000000
B        0.904721818   0.381014104   0.500000000
B        0.904869603   0.523752944   0.500000000
B        0.905645230   0.666791239   0.500000000
B        0.905634133   0.810082288   0.500000000
B        0.905299575   0.952725948   0.500000000
N        0.094958614   0.047220982   0.500000000
N        0.094408160   0.189606695   0.500000000
N        0.094835484   0.333105623   0.500000000
N        0.094542702   0.476055643   0.500000000
N        0.094737378   0.618939139   0.500000000
N        0.095271716   0.761908187   0.500000000
N        0.095290789   0.904709193   0.500000000
N        0.237934012   0.047101864   0.500000000
N        0.237318509   0.189259206   0.500000000
N        0.236509292   0.331478993   0.500000000
N        0.236998961   0.476201461   0.500000000
N        0.236805975   0.619250318   0.500000000
N        0.237868040   0.762131964   0.500000000
N        0.238091810   0.904728276   0.500000000
N        0.381090361   0.047334974   0.500000000
N        0.380927836   0.189287358   0.500000000
N        0.380011455   0.330361282   0.500000000
C1       0.382818733   0.475999751   0.500000000
N        0.378922960   0.621077015   0.500000000
N        0.380749671   0.763194016   0.500000000
N        0.381060856   0.905262621   0.500000000
N        0.523908814   0.047808087   0.500000000
N        0.523879581   0.190434482   0.500000000
N        0.523686853   0.333438019   0.500000000
N        0.523351356   0.476648597   0.500000000
C3       0.524000177   0.617181194   0.500000000
N        0.523798524   0.763001009   0.500000000
N        0.523944354   0.905457305   0.500000000
N        0.666699015   0.047844971   0.500000000
N        0.666628693   0.190524933   0.500000000
N        0.666594643   0.333405370   0.500000000
N        0.666561979   0.476313124   0.500000000
N        0.669638690   0.619988537   0.500000000
N        0.668520984   0.763490674   0.500000000
N        0.666894389   0.905164522   0.500000000
N        0.809614666   0.047780659   0.500000000
N        0.809459664   0.190540359   0.500000000
N        0.809475078   0.333371326   0.500000000
N        0.809565518   0.476120412   0.500000000
N        0.810712657   0.619072156   0.500000000
N        0.810740811   0.762681499   0.500000000
N        0.810393308   0.905591841   0.500000000
N        0.952395447   0.047604556   0.500000000
N        0.952219364   0.190385358   0.500000000
N        0.952155041   0.333300995   0.500000000
N        0.952191899   0.476091180   0.500000000
N        0.952665023   0.618909637   0.500000000
N        0.952898139   0.762065987   0.500000000
N        0.952779023   0.905041379   0.500000000


K_POINTS gamma 

CELL_PARAMETERS alat
   1.001033796   0.000169325   0.000000000
  -0.500370258   0.867005354   0.000000000
   0.000000000   0.000000000   1.137203616


OCCUPATIONS
  1.0 1.0 1.0 1.0 1.0 1.0 1.0 1.0
  1.0 1.0 1.0 1.0 1.0 1.0 1.0 1.0
  1.0 1.0 1.0 1.0 1.0 1.0 1.0 1.0
  1.0 1.0 1.0 1.0 1.0 1.0 1.0 1.0
  1.0 1.0 1.0 1.0 1.0 1.0 1.0 1.0
  1.0 1.0 1.0 1.0 1.0 1.0 1.0 1.0
  1.0 1.0 1.0 1.0 1.0 1.0 1.0 1.0
  1.0 1.0 1.0 1.0 1.0 1.0 1.0 1.0
  1.0 1.0 1.0 1.0 1.0 1.0 1.0 1.0
  1.0 1.0 1.0 1.0 1.0 1.0 1.0 1.0
  1.0 1.0 1.0 1.0 1.0 1.0 1.0 1.0
  1.0 1.0 1.0 1.0 1.0 1.0 1.0 1.0
  1.0 1.0 1.0 1.0 1.0 1.0 1.0 1.0
  1.0 1.0 1.0 1.0 1.0 1.0 1.0 1.0
  1.0 1.0 1.0 1.0 1.0 1.0 1.0 1.0
  1.0 1.0 1.0 1.0 1.0 1.0 1.0 1.0
  1.0 1.0 1.0 1.0 1.0 1.0 1.0 1.0
  1.0 1.0 1.0 1.0 1.0 1.0 1.0 1.0
  1.0 1.0 1.0 1.0 1.0 1.0 1.0 1.0
  1.0 1.0 1.0 1.0 1.0 1.0 1.0 1.0
  1.0 1.0 1.0 1.0 1.0 1.0 1.0 1.0
  1.0 1.0 1.0 1.0 1.0 1.0 1.0 1.0
  1.0 1.0 1.0 1.0 1.0 1.0 1.0 1.0
  1.0 1.0 1.0 1.0 1.0 1.0 1.0 1.0
  1.0 1.0 1.0 0.0 1.0 0.0 0.0 0.0
  0.0 0.0 0.0 0.0 0.0 0.0 0.0 0.0
  0.0 0.0 0.0 0.0 0.0 0.0 0.0 0.0
  0.0 0.0 0.0 0.0 0.0 0.0 0.0 0.0
  0.0 0.0 0.0 0.0 0.0 0.0 0.0 0.0
  0.0 0.0 0.0 0.0 0.0 0.0 0.0 0.0
  0.0 0.0 0.0 0.0 0.0
  1.0 1.0 1.0 1.0 1.0 1.0 1.0 1.0
  1.0 1.0 1.0 1.0 1.0 1.0 1.0 1.0
  1.0 1.0 1.0 1.0 1.0 1.0 1.0 1.0
  1.0 1.0 1.0 1.0 1.0 1.0 1.0 1.0
  1.0 1.0 1.0 1.0 1.0 1.0 1.0 1.0
  1.0 1.0 1.0 1.0 1.0 1.0 1.0 1.0
  1.0 1.0 1.0 1.0 1.0 1.0 1.0 1.0
  1.0 1.0 1.0 1.0 1.0 1.0 1.0 1.0
  1.0 1.0 1.0 1.0 1.0 1.0 1.0 1.0
  1.0 1.0 1.0 1.0 1.0 1.0 1.0 1.0
  1.0 1.0 1.0 1.0 1.0 1.0 1.0 1.0
  1.0 1.0 1.0 1.0 1.0 1.0 1.0 1.0
  1.0 1.0 1.0 1.0 1.0 1.0 1.0 1.0
  1.0 1.0 1.0 1.0 1.0 1.0 1.0 1.0
  1.0 1.0 1.0 1.0 1.0 1.0 1.0 1.0
  1.0 1.0 1.0 1.0 1.0 1.0 1.0 1.0
  1.0 1.0 1.0 1.0 1.0 1.0 1.0 1.0
  1.0 1.0 1.0 1.0 1.0 1.0 1.0 1.0
  1.0 1.0 1.0 1.0 1.0 1.0 1.0 1.0
  1.0 1.0 1.0 1.0 1.0 1.0 1.0 1.0
  1.0 1.0 1.0 1.0 1.0 1.0 1.0 1.0
  1.0 1.0 1.0 1.0 1.0 1.0 1.0 1.0
  1.0 1.0 1.0 1.0 1.0 1.0 1.0 1.0
  1.0 1.0 1.0 1.0 1.0 1.0 1.0 1.0
  1.0 1.0 0.0 1.0 0.0 0.0 0.0 0.0
  0.0 0.0 0.0 0.0 0.0 0.0 0.0 0.0
  0.0 0.0 0.0 0.0 0.0 0.0 0.0 0.0
  0.0 0.0 0.0 0.0 0.0 0.0 0.0 0.0
  0.0 0.0 0.0 0.0 0.0 0.0 0.0 0.0
  0.0 0.0 0.0 0.0 0.0 0.0 0.0 0.0
  0.0 0.0 0.0 0.0 0.0
  
