&CONTROL
	calculation = 'scf'
	restart_mode = 'from_scratch'
	prefix = 'C2Cn'
	pseudo_dir ='./pseudo/'
	outdir='./TMP_DIR/'
	etot_conv_thr = 0.95E-2
/
&SYSTEM
	ibrav = 0,
	celldm(1) = 33.23461096
	nat= 98,
	ntyp= 5,
	ecutwfc = 25.73
	nbnd = 245,
	occupations = 'from_input' 
	nspin = 2
	starting_magnetization(3) = 1
	input_dft='hse', nqx1 = 1, nqx2 = 1, nqx3 = 1, 	! HSE06
    	x_gamma_extrapolation = .true.,
    	exxdiv_treatment = 'gygi-baldereschi',
    	nosym = .true., noinv = .true
	vdw_corr = 'Grimme-D3'
	exx_fraction = 0.32
	screening_parameter = 0.0455 
/
&ELECTRONS
	diagonalization = 'cg'
	conv_thr = 0.95E-2	
/
ATOMIC_SPECIES
  B  10 B.pbe-n-kjpaw_psl.1.0.0.UPF
  N  14 N.pbe-n-kjpaw_psl.1.0.0.UPF
  C1 12 C.pbe-n-kjpaw_psl.1.0.0.UPF
  C2 12 C.pbe-n-kjpaw_psl.1.0.0.UPF
  C3 12 C.pbe-n-kjpaw_psl.1.0.0.UPF

ATOMIC_POSITIONS (crystal)
B        0.047298060   0.094709310   0.500000000
B        0.047350522   0.237764009   0.500000000
B        0.047289420   0.380856315   0.500000000
B        0.047184094   0.523772176   0.500000000
B        0.047611197   0.666640163   0.500000000
B        0.047886029   0.809631813   0.500000000
B        0.047697661   0.952302333   0.500000000
B        0.189934024   0.094371777   0.500000000
B        0.189271289   0.236562198   0.500000000
B        0.190116746   0.380812467   0.500000000
B        0.189506881   0.523686527   0.500000000
B        0.189620558   0.666778101   0.500000000
B        0.190335184   0.809664810   0.500000000
B        0.190368183   0.952113971   0.500000000
B        0.333207195   0.094357588   0.500000000
B        0.332752329   0.236201115   0.500000000
B        0.331745204   0.377571408   0.500000000
B        0.332422194   0.525064513   0.500000000
B        0.331884152   0.668115851   0.500000000
B        0.333221897   0.810379440   0.500000000
B        0.333359839   0.952388804   0.500000000
B        0.476264105   0.095147715   0.500000000
B        0.476139755   0.237767926   0.500000000
B        0.475162475   0.379901458   0.500000000
C2       0.477261749   0.522738253   0.500000000
B        0.474935485   0.667577803   0.500000000
B        0.476313478   0.810493115   0.500000000
B        0.476227826   0.952815906   0.500000000
B        0.618998628   0.095271343   0.500000000
B        0.619016704   0.237966459   0.500000000
B        0.619108238   0.380891765   0.500000000
B        0.620098544   0.524837530   0.500000000
B        0.622428594   0.668254796   0.500000000
B        0.619187534   0.809883248   0.500000000
B        0.619143683   0.952710576   0.500000000
B        0.761871806   0.095292874   0.500000000
B        0.761847879   0.238152119   0.500000000
B        0.762033545   0.380983299   0.500000000
B        0.762232073   0.523860246   0.500000000
B        0.763798887   0.667247674   0.500000000
B        0.763437807   0.810728710   0.500000000
B        0.762235993   0.952649473   0.500000000
B        0.904837021   0.095162978   0.500000000
B        0.904707122   0.238128194   0.500000000
B        0.904728658   0.381001374   0.500000000
B        0.904852292   0.523735898   0.500000000
B        0.905642416   0.666792807   0.500000000
B        0.905628226   0.810065976   0.500000000
B        0.905290691   0.952701938   0.500000000
N        0.094973955   0.047226490   0.500000000
N        0.094462273   0.189644764   0.500000000
N        0.094875696   0.333125081   0.500000000
N        0.094565534   0.476049140   0.500000000
N        0.094701408   0.618923997   0.500000000
N        0.095263294   0.761904314   0.500000000
N        0.095296329   0.904703673   0.500000000
N        0.237945830   0.047108903   0.500000000
N        0.237324570   0.189269687   0.500000000
N        0.236650293   0.331594444   0.500000000
N        0.237056744   0.476243151   0.500000000
N        0.236757635   0.619261288   0.500000000
N        0.237861936   0.762138069   0.500000000
N        0.238095688   0.904736709   0.500000000
N        0.381098217   0.047367409   0.500000000
N        0.380947115   0.189352048   0.500000000
N        0.380059969   0.330429007   0.500000000
C1       0.383121878   0.476271813   0.500000000
N        0.378852375   0.621147623   0.500000000
N        0.380738716   0.763242369   0.500000000
N        0.381076007   0.905298596   0.500000000
N        0.523921168   0.047823382   0.500000000
N        0.523900001   0.190452155   0.500000000
N        0.523739144   0.333453678   0.500000000
N        0.523300881   0.476699118   0.500000000
C3       0.523728183   0.616878119   0.500000000
N        0.523756846   0.762943252   0.500000000
N        0.523950861   0.905434467   0.500000000
N        0.666704237   0.047832180   0.500000000
N        0.666641924   0.190518051   0.500000000
N        0.666611064   0.333388937   0.500000000
N        0.666546321   0.476260856   0.500000000
N        0.669570992   0.619940031   0.500000000
N        0.668405557   0.763349707   0.500000000
N        0.666874917   0.905124303   0.500000000
N        0.809607600   0.047755742   0.500000000
N        0.809467789   0.190532203   0.500000000
N        0.809481944   0.333358072   0.500000000
N        0.809547844   0.476099998   0.500000000
N        0.810647950   0.619052881   0.500000000
N        0.810730316   0.762675432   0.500000000
N        0.810355237   0.905537729   0.500000000
N        0.952403996   0.047596004   0.500000000
N        0.952244252   0.190392394   0.500000000
N        0.952167816   0.333295758   0.500000000
N        0.952176616   0.476078832   0.500000000
N        0.952632591   0.618901782   0.500000000
N        0.952891099   0.762054170   0.500000000
N        0.952773514   0.905026049   0.500000000

K_POINTS gamma

CELL_PARAMETERS alat
   1.001046930   0.000089267   0.000000000
  -0.500446157   0.866976705   0.000000000
   0.000000000   0.000000000   1.137203616

OCCUPATIONS
  1.0 1.0 1.0 1.0 1.0 1.0 1.0 1.0
  1.0 1.0 1.0 1.0 1.0 1.0 1.0 1.0
  1.0 1.0 1.0 1.0 1.0 1.0 1.0 1.0
  1.0 1.0 1.0 1.0 1.0 1.0 1.0 1.0
  1.0 1.0 1.0 1.0 1.0 1.0 1.0 1.0
  1.0 1.0 1.0 1.0 1.0 1.0 1.0 1.0
  1.0 1.0 1.0 1.0 1.0 1.0 1.0 1.0
  1.0 1.0 1.0 1.0 1.0 1.0 1.0 1.0
  1.0 1.0 1.0 1.0 1.0 1.0 1.0 1.0
  1.0 1.0 1.0 1.0 1.0 1.0 1.0 1.0
  1.0 1.0 1.0 1.0 1.0 1.0 1.0 1.0
  1.0 1.0 1.0 1.0 1.0 1.0 1.0 1.0
  1.0 1.0 1.0 1.0 1.0 1.0 1.0 1.0
  1.0 1.0 1.0 1.0 1.0 1.0 1.0 1.0
  1.0 1.0 1.0 1.0 1.0 1.0 1.0 1.0
  1.0 1.0 1.0 1.0 1.0 1.0 1.0 1.0
  1.0 1.0 1.0 1.0 1.0 1.0 1.0 1.0
  1.0 1.0 1.0 1.0 1.0 1.0 1.0 1.0
  1.0 1.0 1.0 1.0 1.0 1.0 1.0 1.0
  1.0 1.0 1.0 1.0 1.0 1.0 1.0 1.0
  1.0 1.0 1.0 1.0 1.0 1.0 1.0 1.0
  1.0 1.0 1.0 1.0 1.0 1.0 1.0 1.0
  1.0 1.0 1.0 1.0 1.0 1.0 1.0 1.0
  1.0 1.0 1.0 1.0 1.0 1.0 1.0 1.0
  1.0 1.0 0.0 1.0 1.0 0.0 0.0 0.0
  0.0 0.0 0.0 0.0 0.0 0.0 0.0 0.0
  0.0 0.0 0.0 0.0 0.0 0.0 0.0 0.0
  0.0 0.0 0.0 0.0 0.0 0.0 0.0 0.0
  0.0 0.0 0.0 0.0 0.0 0.0 0.0 0.0
  0.0 0.0 0.0 0.0 0.0 0.0 0.0 0.0
  0.0 0.0 0.0 0.0 0.0
  1.0 1.0 1.0 1.0 1.0 1.0 1.0 1.0
  1.0 1.0 1.0 1.0 1.0 1.0 1.0 1.0
  1.0 1.0 1.0 1.0 1.0 1.0 1.0 1.0
  1.0 1.0 1.0 1.0 1.0 1.0 1.0 1.0
  1.0 1.0 1.0 1.0 1.0 1.0 1.0 1.0
  1.0 1.0 1.0 1.0 1.0 1.0 1.0 1.0
  1.0 1.0 1.0 1.0 1.0 1.0 1.0 1.0
  1.0 1.0 1.0 1.0 1.0 1.0 1.0 1.0
  1.0 1.0 1.0 1.0 1.0 1.0 1.0 1.0
  1.0 1.0 1.0 1.0 1.0 1.0 1.0 1.0
  1.0 1.0 1.0 1.0 1.0 1.0 1.0 1.0
  1.0 1.0 1.0 1.0 1.0 1.0 1.0 1.0
  1.0 1.0 1.0 1.0 1.0 1.0 1.0 1.0
  1.0 1.0 1.0 1.0 1.0 1.0 1.0 1.0
  1.0 1.0 1.0 1.0 1.0 1.0 1.0 1.0
  1.0 1.0 1.0 1.0 1.0 1.0 1.0 1.0
  1.0 1.0 1.0 1.0 1.0 1.0 1.0 1.0
  1.0 1.0 1.0 1.0 1.0 1.0 1.0 1.0
  1.0 1.0 1.0 1.0 1.0 1.0 1.0 1.0
  1.0 1.0 1.0 1.0 1.0 1.0 1.0 1.0
  1.0 1.0 1.0 1.0 1.0 1.0 1.0 1.0
  1.0 1.0 1.0 1.0 1.0 1.0 1.0 1.0
  1.0 1.0 1.0 1.0 1.0 1.0 1.0 1.0
  1.0 1.0 1.0 1.0 1.0 1.0 1.0 1.0
  1.0 1.0 1.0 0.0 0.0 0.0 0.0 0.0
  0.0 0.0 0.0 0.0 0.0 0.0 0.0 0.0
  0.0 0.0 0.0 0.0 0.0 0.0 0.0 0.0
  0.0 0.0 0.0 0.0 0.0 0.0 0.0 0.0
  0.0 0.0 0.0 0.0 0.0 0.0 0.0 0.0
  0.0 0.0 0.0 0.0 0.0 0.0 0.0 0.0
  0.0 0.0 0.0 0.0 0.0
 
