&CONTROL
	calculation = 'scf'
	restart_mode = 'from_scratch'
	prefix = 'C2Cn'
	pseudo_dir ='./pseudo/'
	outdir='./TMP_DIR/'
	etot_conv_thr = 1.0E-2
/
&SYSTEM
	ibrav = 0,
	celldm(1) = 33.23461096
	nat= 98,
	ntyp= 5,
	ecutwfc = 25.73
	nbnd = 245,
	occupations = 'from_input' 
	nspin = 2
	starting_magnetization(3) = 1
	input_dft='hse', nqx1 = 1, nqx2 = 1, nqx3 = 1, 	! HSE06
    	x_gamma_extrapolation = .true.,
    	exxdiv_treatment = 'gygi-baldereschi',
    	nosym = .true., noinv = .true
	vdw_corr = 'Grimme-D3'
	exx_fraction = 0.32
	screening_parameter = 0.0455 
/
&ELECTRONS
	diagonalization = 'cg'
	conv_thr = 1.0E-2	
/
ATOMIC_SPECIES
  B  10 B.pbe-n-kjpaw_psl.1.0.0.UPF
  N  14 N.pbe-n-kjpaw_psl.1.0.0.UPF
  C1 12 C.pbe-n-kjpaw_psl.1.0.0.UPF
  C2 12 C.pbe-n-kjpaw_psl.1.0.0.UPF
  C3 12 C.pbe-n-kjpaw_psl.1.0.0.UPF

ATOMIC_POSITIONS (crystal)
B        0.047242756   0.094633989   0.500000000
B        0.047302104   0.237735311   0.500000000
B        0.047258862   0.380902624   0.500000000
B        0.047165472   0.523735989   0.500000000
B        0.047652171   0.666618696   0.500000000
B        0.047940125   0.809603510   0.500000000
B        0.047723750   0.952276499   0.500000000
B        0.189892982   0.094259057   0.500000000
B        0.189085879   0.236344426   0.500000000
B        0.189981666   0.380648034   0.500000000
B        0.189387253   0.523713819   0.500000000
B        0.189690860   0.666800283   0.500000000
B        0.190390662   0.809609362   0.500000000
B        0.190396553   0.952059957   0.500000000
B        0.333202928   0.094302617   0.500000000
B        0.332562537   0.235895477   0.500000000
B        0.331021454   0.376697764   0.500000000
B        0.332103899   0.525219755   0.500000000
B        0.331933675   0.668066323   0.500000000
B        0.333199697   0.810309151   0.500000000
B        0.333381262   0.952347805   0.500000000
B        0.476258112   0.095148769   0.500000000
B        0.476015509   0.237684861   0.500000000
B        0.474988686   0.379733066   0.500000000
C2       0.477681084   0.522318971   0.500000000
B        0.474780226   0.667896088   0.500000000
B        0.476286110   0.810612721   0.500000000
B        0.476263903   0.952834502   0.500000000
B        0.618981534   0.095315406   0.500000000
B        0.619002295   0.238058104   0.500000000
B        0.619025999   0.380974018   0.500000000
B        0.620266949   0.525011304   0.500000000
B        0.623302213   0.668978485   0.500000000
B        0.619351876   0.810018272   0.500000000
B        0.619097270   0.952741149   0.500000000
B        0.761864898   0.095332426   0.500000000
B        0.761815306   0.238184716   0.500000000
B        0.761941901   0.380997689   0.500000000
B        0.762315120   0.523984442   0.500000000
B        0.764104471   0.667437363   0.500000000
B        0.763655515   0.810914048   0.500000000
B        0.762264700   0.952698002   0.500000000
B        0.904818414   0.095181801   0.500000000
B        0.904667687   0.238135134   0.500000000
B        0.904684610   0.381018385   0.500000000
B        0.904851186   0.523741802   0.500000000
B        0.905697341   0.666797004   0.500000000
B        0.905741002   0.810107041   0.500000000
B        0.905366240   0.952757492   0.500000000
N        0.094945953   0.047154369   0.500000000
N        0.094325517   0.189518959   0.500000000
N        0.094824467   0.333098688   0.500000000
N        0.094458238   0.476033274   0.500000000
N        0.094756465   0.618906076   0.500000000
N        0.095300492   0.761857407   0.500000000
N        0.095333319   0.904666555   0.500000000
N        0.237945396   0.047041689   0.500000000
N        0.237244915   0.189119737   0.500000000
N        0.236301980   0.331229703   0.500000000
N        0.236897196   0.476208266   0.500000000
N        0.236849930   0.619240229   0.500000000
N        0.237885556   0.762114364   0.500000000
N        0.238142522   0.904699428   0.500000000
N        0.381112092   0.047318508   0.500000000
N        0.380878100   0.189213731   0.500000000
N        0.379823603   0.330199670   0.500000000
C1       0.382256514   0.475593819   0.500000000
N        0.379004079   0.620995942   0.500000000
N        0.380759769   0.763150045   0.500000000
N        0.381093914   0.905243506   0.500000000
N        0.523929183   0.047863089   0.500000000
N        0.523863746   0.190470123   0.500000000
N        0.523618792   0.333456280   0.500000000
N        0.523311831   0.476688178   0.500000000
C3       0.524406213   0.617743508   0.500000000
N        0.523791816   0.763102868   0.500000000
N        0.523966811   0.905541781   0.500000000
N        0.666696524   0.047870706   0.500000000
N        0.666611487   0.190571221   0.500000000
N        0.666549283   0.333450671   0.500000000
N        0.666543707   0.476381213   0.500000000
N        0.669800396   0.620176506   0.500000000
N        0.668770443   0.763698199   0.500000000
N        0.666901417   0.905175589   0.500000000
N        0.809611956   0.047808578   0.500000000
N        0.809433332   0.190566554   0.500000000
N        0.809428719   0.333388476   0.500000000
N        0.809529879   0.476136260   0.500000000
N        0.810786315   0.619121994   0.500000000
N        0.810880317   0.762755225   0.500000000
N        0.810481003   0.905674471   0.500000000
N        0.952397469   0.047602262   0.500000000
N        0.952191259   0.190387924   0.500000000
N        0.952129236   0.333303495   0.500000000
N        0.952136916   0.476070857   0.500000000
N        0.952681507   0.618887936   0.500000000
N        0.952958267   0.762054633   0.500000000
N        0.952845448   0.905053925   0.500000000

K_POINTS gamma

CELL_PARAMETERS alat
   1.001047755   0.000224948   0.000000000
  -0.500329068   0.867045254   0.000000000
   0.000000000   0.000000000   1.137203616

OCCUPATIONS
  1.0 1.0 1.0 1.0 1.0 1.0 1.0 1.0
  1.0 1.0 1.0 1.0 1.0 1.0 1.0 1.0
  1.0 1.0 1.0 1.0 1.0 1.0 1.0 1.0
  1.0 1.0 1.0 1.0 1.0 1.0 1.0 1.0
  1.0 1.0 1.0 1.0 1.0 1.0 1.0 1.0
  1.0 1.0 1.0 1.0 1.0 1.0 1.0 1.0
  1.0 1.0 1.0 1.0 1.0 1.0 1.0 1.0
  1.0 1.0 1.0 1.0 1.0 1.0 1.0 1.0
  1.0 1.0 1.0 1.0 1.0 1.0 1.0 1.0
  1.0 1.0 1.0 1.0 1.0 1.0 1.0 1.0
  1.0 1.0 1.0 1.0 1.0 1.0 1.0 1.0
  1.0 1.0 1.0 1.0 1.0 1.0 1.0 1.0
  1.0 1.0 1.0 1.0 1.0 1.0 1.0 1.0
  1.0 1.0 1.0 1.0 1.0 1.0 1.0 1.0
  1.0 1.0 1.0 1.0 1.0 1.0 1.0 1.0
  1.0 1.0 1.0 1.0 1.0 1.0 1.0 1.0
  1.0 1.0 1.0 1.0 1.0 1.0 1.0 1.0
  1.0 1.0 1.0 1.0 1.0 1.0 1.0 1.0
  1.0 1.0 1.0 1.0 1.0 1.0 1.0 1.0
  1.0 1.0 1.0 1.0 1.0 1.0 1.0 1.0
  1.0 1.0 1.0 1.0 1.0 1.0 1.0 1.0
  1.0 1.0 1.0 1.0 1.0 1.0 1.0 1.0
  1.0 1.0 1.0 1.0 1.0 1.0 1.0 1.0
  1.0 1.0 1.0 1.0 1.0 1.0 1.0 1.0
  1.0 1.0 1.0 1.0 1.0 0.0 0.0 0.0
  0.0 0.0 0.0 0.0 0.0 0.0 0.0 0.0
  0.0 0.0 0.0 0.0 0.0 0.0 0.0 0.0
  0.0 0.0 0.0 0.0 0.0 0.0 0.0 0.0
  0.0 0.0 0.0 0.0 0.0 0.0 0.0 0.0
  0.0 0.0 0.0 0.0 0.0 0.0 0.0 0.0
  0.0 0.0 0.0 0.0 0.0
  1.0 1.0 1.0 1.0 1.0 1.0 1.0 1.0
  1.0 1.0 1.0 1.0 1.0 1.0 1.0 1.0
  1.0 1.0 1.0 1.0 1.0 1.0 1.0 1.0
  1.0 1.0 1.0 1.0 1.0 1.0 1.0 1.0
  1.0 1.0 1.0 1.0 1.0 1.0 1.0 1.0
  1.0 1.0 1.0 1.0 1.0 1.0 1.0 1.0
  1.0 1.0 1.0 1.0 1.0 1.0 1.0 1.0
  1.0 1.0 1.0 1.0 1.0 1.0 1.0 1.0
  1.0 1.0 1.0 1.0 1.0 1.0 1.0 1.0
  1.0 1.0 1.0 1.0 1.0 1.0 1.0 1.0
  1.0 1.0 1.0 1.0 1.0 1.0 1.0 1.0
  1.0 1.0 1.0 1.0 1.0 1.0 1.0 1.0
  1.0 1.0 1.0 1.0 1.0 1.0 1.0 1.0
  1.0 1.0 1.0 1.0 1.0 1.0 1.0 1.0
  1.0 1.0 1.0 1.0 1.0 1.0 1.0 1.0
  1.0 1.0 1.0 1.0 1.0 1.0 1.0 1.0
  1.0 1.0 1.0 1.0 1.0 1.0 1.0 1.0
  1.0 1.0 1.0 1.0 1.0 1.0 1.0 1.0
  1.0 1.0 1.0 1.0 1.0 1.0 1.0 1.0
  1.0 1.0 1.0 1.0 1.0 1.0 1.0 1.0
  1.0 1.0 1.0 1.0 1.0 1.0 1.0 1.0
  1.0 1.0 1.0 1.0 1.0 1.0 1.0 1.0
  1.0 1.0 1.0 1.0 1.0 1.0 1.0 1.0
  1.0 1.0 1.0 1.0 1.0 1.0 1.0 1.0
  1.0 1.0 0.0 0.0 0.0 0.0 0.0 0.0
  0.0 0.0 0.0 0.0 0.0 0.0 0.0 0.0
  0.0 0.0 0.0 0.0 0.0 0.0 0.0 0.0
  0.0 0.0 0.0 0.0 0.0 0.0 0.0 0.0
  0.0 0.0 0.0 0.0 0.0 0.0 0.0 0.0
  0.0 0.0 0.0 0.0 0.0 0.0 0.0 0.0
  0.0 0.0 0.0 0.0 0.0

