&CONTROL
	calculation = 'scf'
	restart_mode = 'from_scratch'
	prefix = 'C2Cn'
	pseudo_dir ='./pseudo/'
	outdir='./TMP_DIR/'
	etot_conv_thr = 7.3E-2	
/
&SYSTEM
	ibrav = 0,
	celldm(1) = 33.23461096
	nat= 98,
	ntyp= 5,
	ecutwfc = 25.73
	nbnd = 245,
	occupations = 'from_input' 
	nspin = 2
	starting_magnetization(3) = 1
	input_dft='hse', nqx1 = 1, nqx2 = 1, nqx3 = 1, 	! HSE06
    	x_gamma_extrapolation = .true.,
    	exxdiv_treatment = 'gygi-baldereschi',
    	!nosym = .true., noinv = .true
	vdw_corr = 'Grimme-D3'
	exx_fraction = 0.32
	screening_parameter = 0.0455 
/
&ELECTRONS
	diagonalization = 'cg'
	conv_thr = 7.3E-2	
/
ATOMIC_SPECIES
  B  10 B.pbe-n-kjpaw_psl.1.0.0.UPF
  N  14 N.pbe-n-kjpaw_psl.1.0.0.UPF
  C1 12 C.pbe-n-kjpaw_psl.1.0.0.UPF
  C2 12 C.pbe-n-kjpaw_psl.1.0.0.UPF
  C3 12 C.pbe-n-kjpaw_psl.1.0.0.UPF

ATOMIC_POSITIONS (crystal)
B        0.047298890   0.094773458   0.500000000
B        0.047405437   0.237897026   0.500000000
B        0.047369401   0.380880380   0.500000000
B        0.047274400   0.523668573   0.500000000
B        0.047750950   0.666559658   0.500000000
B        0.047968954   0.809578145   0.500000000
B        0.047705452   0.952294501   0.500000000
B        0.189896980   0.094334365   0.500000000
B        0.189418570   0.236824158   0.500000000
B        0.190389303   0.380961011   0.500000000
B        0.189770532   0.523393284   0.500000000
B        0.189908125   0.666643918   0.500000000
B        0.190480373   0.809519622   0.500000000
B        0.190421832   0.952031010   0.500000000
B        0.333140891   0.094239025   0.500000000
B        0.332437192   0.235901021   0.500000000
B        0.332212233   0.378162823   0.500000000
B        0.333066978   0.524645875   0.500000000
B        0.332235459   0.667764613   0.500000000
B        0.333356124   0.810091862   0.500000000
B        0.333440347   0.952249033   0.500000000
B        0.476254053   0.095184145   0.500000000
B        0.475901051   0.237863862   0.500000000
B        0.473936431   0.379411546   0.500000000
C2       0.476630071   0.523370962   0.500000000
B        0.475354354   0.666933098   0.500000000
B        0.476606788   0.810229434   0.500000000
B        0.476331441   0.952725578   0.500000000
B        0.618962752   0.095339644   0.500000000
B        0.618872276   0.238178168   0.500000000
B        0.618740431   0.381259650   0.500000000
B        0.620588531   0.526063780   0.500000000
B        0.621837162   0.667787762   0.500000000
B        0.619038975   0.809610619   0.500000000
B        0.619119639   0.952630555   0.500000000
B        0.761807861   0.095348575   0.500000000
B        0.761748510   0.238251481   0.500000000
B        0.761821832   0.381127740   0.500000000
B        0.762136118   0.524098975   0.500000000
B        0.764098914   0.667562807   0.500000000
B        0.763175746   0.810581358   0.500000000
B        0.762102919   0.952594504   0.500000000
B        0.904785474   0.095214486   0.500000000
B        0.904651396   0.238192120   0.500000000
B        0.904660341   0.381037259   0.500000000
B        0.904815840   0.523745953   0.500000000
B        0.905760945   0.666859108   0.500000000
B        0.905665546   0.810102973   0.500000000
B        0.905226479   0.952701054   0.500000000
N        0.094974563   0.047191198   0.500000000
N        0.094517236   0.189694283   0.500000000
N        0.094896755   0.333133042   0.500000000
N        0.094617010   0.476017842   0.500000000
N        0.094912930   0.618871722   0.500000000
N        0.095362982   0.761796844   0.500000000
N        0.095347254   0.904652763   0.500000000
N        0.237967869   0.047065036   0.500000000
N        0.237324188   0.189226810   0.500000000
N        0.236862299   0.331687772   0.500000000
N        0.237094171   0.476073259   0.500000000
N        0.237272246   0.619132682   0.500000000
N        0.238037422   0.761962553   0.500000000
N        0.238203146   0.904637022   0.500000000
N        0.381099185   0.047309217   0.500000000
N        0.380840102   0.189358595   0.500000000
N        0.380001350   0.330385046   0.500000000
C1       0.383094601   0.475998584   0.500000000
N        0.379680866   0.620318914   0.500000000
N        0.380867243   0.762727745   0.500000000
N        0.381128265   0.905087090   0.500000000
N        0.523896096   0.047858411   0.500000000
N        0.523760988   0.190608941   0.500000000
N        0.523330317   0.333800143   0.500000000
N        0.522386183   0.477613561   0.500000000
C3       0.524000955   0.616904811   0.500000000
N        0.523926688   0.762905908   0.500000000
N        0.523982134   0.905383029   0.500000000
N        0.666661604   0.047900785   0.500000000
N        0.666507028   0.190707661   0.500000000
N        0.666279335   0.333720656   0.500000000
N        0.666199848   0.476669575   0.500000000
N        0.669614959   0.619998518   0.500000000
N        0.668312329   0.763137834   0.500000000
N        0.666867001   0.905103344   0.500000000
N        0.809555835   0.047801036   0.500000000
N        0.809368262   0.190631764   0.500000000
N        0.809292352   0.333492974   0.500000000
N        0.809391067   0.476238986   0.500000000
N        0.810641437   0.619159874   0.500000000
N        0.810773284   0.762675857   0.500000000
N        0.810305783   0.905482828   0.500000000
N        0.952390014   0.047610031   0.500000000
N        0.952199012   0.190444204   0.500000000
N        0.952099254   0.333338405   0.500000000
N        0.952141606   0.476103893   0.500000000
N        0.952690799   0.618900807   0.500000000
N        0.952935000   0.762032131   0.500000000
N        0.952808850   0.905025478   0.500000000

K_POINTS gamma

CELL_PARAMETERS alat
   1.000288867   0.000428842   0.000000000
  -0.499773045   0.866489980   0.000000000
   0.000000000   0.000000000   1.137203616

OCCUPATIONS
  1.0 1.0 1.0 1.0 1.0 1.0 1.0 1.0
  1.0 1.0 1.0 1.0 1.0 1.0 1.0 1.0
  1.0 1.0 1.0 1.0 1.0 1.0 1.0 1.0
  1.0 1.0 1.0 1.0 1.0 1.0 1.0 1.0
  1.0 1.0 1.0 1.0 1.0 1.0 1.0 1.0
  1.0 1.0 1.0 1.0 1.0 1.0 1.0 1.0
  1.0 1.0 1.0 1.0 1.0 1.0 1.0 1.0
  1.0 1.0 1.0 1.0 1.0 1.0 1.0 1.0
  1.0 1.0 1.0 1.0 1.0 1.0 1.0 1.0
  1.0 1.0 1.0 1.0 1.0 1.0 1.0 1.0
  1.0 1.0 1.0 1.0 1.0 1.0 1.0 1.0
  1.0 1.0 1.0 1.0 1.0 1.0 1.0 1.0
  1.0 1.0 1.0 1.0 1.0 1.0 1.0 1.0
  1.0 1.0 1.0 1.0 1.0 1.0 1.0 1.0
  1.0 1.0 1.0 1.0 1.0 1.0 1.0 1.0
  1.0 1.0 1.0 1.0 1.0 1.0 1.0 1.0
  1.0 1.0 1.0 1.0 1.0 1.0 1.0 1.0
  1.0 1.0 1.0 1.0 1.0 1.0 1.0 1.0
  1.0 1.0 1.0 1.0 1.0 1.0 1.0 1.0
  1.0 1.0 1.0 1.0 1.0 1.0 1.0 1.0
  1.0 1.0 1.0 1.0 1.0 1.0 1.0 1.0
  1.0 1.0 1.0 1.0 1.0 1.0 1.0 1.0
  1.0 1.0 1.0 1.0 1.0 1.0 1.0 1.0
  1.0 1.0 1.0 1.0 1.0 1.0 1.0 1.0
  1.0 1.0 1.0 1.0 0.0 0.0 0.0 0.0
  0.0 0.0 0.0 0.0 0.0 0.0 0.0 0.0
  0.0 0.0 0.0 0.0 0.0 0.0 0.0 0.0
  0.0 0.0 0.0 0.0 0.0 0.0 0.0 0.0
  0.0 0.0 0.0 0.0 0.0 0.0 0.0 0.0
  0.0 0.0 0.0 0.0 0.0 0.0 0.0 0.0
  0.0 0.0 0.0 0.0 0.0
  1.0 1.0 1.0 1.0 1.0 1.0 1.0 1.0
  1.0 1.0 1.0 1.0 1.0 1.0 1.0 1.0
  1.0 1.0 1.0 1.0 1.0 1.0 1.0 1.0
  1.0 1.0 1.0 1.0 1.0 1.0 1.0 1.0
  1.0 1.0 1.0 1.0 1.0 1.0 1.0 1.0
  1.0 1.0 1.0 1.0 1.0 1.0 1.0 1.0
  1.0 1.0 1.0 1.0 1.0 1.0 1.0 1.0
  1.0 1.0 1.0 1.0 1.0 1.0 1.0 1.0
  1.0 1.0 1.0 1.0 1.0 1.0 1.0 1.0
  1.0 1.0 1.0 1.0 1.0 1.0 1.0 1.0
  1.0 1.0 1.0 1.0 1.0 1.0 1.0 1.0
  1.0 1.0 1.0 1.0 1.0 1.0 1.0 1.0
  1.0 1.0 1.0 1.0 1.0 1.0 1.0 1.0
  1.0 1.0 1.0 1.0 1.0 1.0 1.0 1.0
  1.0 1.0 1.0 1.0 1.0 1.0 1.0 1.0
  1.0 1.0 1.0 1.0 1.0 1.0 1.0 1.0
  1.0 1.0 1.0 1.0 1.0 1.0 1.0 1.0
  1.0 1.0 1.0 1.0 1.0 1.0 1.0 1.0
  1.0 1.0 1.0 1.0 1.0 1.0 1.0 1.0
  1.0 1.0 1.0 1.0 1.0 1.0 1.0 1.0
  1.0 1.0 1.0 1.0 1.0 1.0 1.0 1.0
  1.0 1.0 1.0 1.0 1.0 1.0 1.0 1.0
  1.0 1.0 1.0 1.0 1.0 1.0 1.0 1.0
  1.0 1.0 1.0 1.0 1.0 1.0 1.0 1.0
  1.0 1.0 0.0 1.0 0.0 0.0 0.0 0.0
  0.0 0.0 0.0 0.0 0.0 0.0 0.0 0.0
  0.0 0.0 0.0 0.0 0.0 0.0 0.0 0.0
  0.0 0.0 0.0 0.0 0.0 0.0 0.0 0.0
  0.0 0.0 0.0 0.0 0.0 0.0 0.0 0.0
  0.0 0.0 0.0 0.0 0.0 0.0 0.0 0.0
  0.0 0.0 0.0 0.0 0.0
   
