&CONTROL
	calculation = 'vc-relax'
	restart_mode = 'from_scratch'
	prefix = 'C2Cn'
	pseudo_dir ='./pseudo/'
	outdir='./TMP_DIR/'
	etot_conv_thr = 1.0E-5		
	forc_conv_thr = 1.94E-4
	tstress = .true.		
/
&SYSTEM
	ibrav = 0,
	celldm(1) = 33.23461096
	nat= 98,
	ntyp= 5,
	ecutwfc = 40.0
	nbnd = 245
	occupations = 'from_input' 
	nspin = 2,			! required for spin polarized calc
	starting_magnetization(3) = 1
	vdw_corr = 'Grimme-D3'
/
&ELECTRONS
	diagonalization = 'cg'
	conv_thr = 1.0E-8		! get to -12
/
&IONS
	ion_dynamics="bfgs"
/
&CELL
	cell_dofree = "2Dxy"
	cell_dynamics = 'bfgs'
	press = 0.0
	press_conv_thr = 0.1
	cell_factor = 4.0
/

ATOMIC_SPECIES
  B  10 B.pbe-n-kjpaw_psl.1.0.0.UPF
  N  14 N.pbe-n-kjpaw_psl.1.0.0.UPF
  C1 12 C.pbe-n-kjpaw_psl.1.0.0.UPF
  C2 12 C.pbe-n-kjpaw_psl.1.0.0.UPF
  C3 12 C.pbe-n-kjpaw_psl.1.0.0.UPF

ATOMIC_POSITIONS {crystal}
B        0.047287978   0.094743551   0.500000000
B        0.047368981   0.237781525   0.500000000
B        0.047317066   0.380883710   0.500000000
B        0.047176229   0.523757976   0.500000000
B        0.047577758   0.666677456   0.500000000
B        0.047835507   0.809670867   0.500000000
B        0.047664687   0.952335389   0.500000000
B        0.189924376   0.094388052   0.500000000
B        0.189267294   0.236586971   0.500000000
B        0.190130728   0.380771062   0.500000000
B        0.189513778   0.523691503   0.500000000
B        0.189589228   0.666818749   0.500000000
B        0.190285347   0.809714680   0.500000000
B        0.190329166   0.952164527   0.500000000
B        0.333227894   0.094398505   0.500000000
B        0.332790442   0.236172843   0.500000000
B        0.331610773   0.377401771   0.500000000
B        0.332379846   0.524996272   0.500000000
B        0.331887992   0.668112030   0.500000000
B        0.333181261   0.810410800   0.500000000
B        0.333322580   0.952422270   0.500000000
B        0.476267396   0.095168126   0.500000000
B        0.476119860   0.237717294   0.500000000
B        0.475153726   0.379873546   0.500000000
C2       0.477404412   0.522595819   0.500000000
B        0.475003740   0.667620197   0.500000000
B        0.476308523   0.810486229   0.500000000
B        0.476242053   0.952823824   0.500000000
B        0.619002958   0.095268386   0.500000000
B        0.619052504   0.237990125   0.500000000
B        0.619106618   0.380893382   0.500000000
B        0.620126456   0.524846322   0.500000000
B        0.622598314   0.668389297   0.500000000
B        0.619228963   0.809869255   0.500000000
B        0.619116297   0.952682926   0.500000000
B        0.761880261   0.095279748   0.500000000
B        0.761860943   0.238138996   0.500000000
B        0.762009847   0.380947474   0.500000000
B        0.762282663   0.523880150   0.500000000
B        0.763827108   0.667209540   0.500000000
B        0.763412962   0.810732653   0.500000000
B        0.762218461   0.952631039   0.500000000
B        0.904828811   0.095171189   0.500000000
B        0.904720244   0.238119717   0.500000000
B        0.904731606   0.380997024   0.500000000
B        0.904831862   0.523732605   0.500000000
B        0.905601488   0.666772117   0.500000000
B        0.905611926   0.810075625   0.500000000
B        0.905256460   0.952712093   0.500000000
N        0.094953732   0.047248350   0.500000000
N        0.094452978   0.189660029   0.500000000
N        0.094932848   0.333161780   0.500000000
N        0.094581052   0.476071993   0.500000000
N        0.094676049   0.618940729   0.500000000
N        0.095223098   0.761935562   0.500000000
N        0.095262044   0.904737852   0.500000000
N        0.237948029   0.047143363   0.500000000
N        0.237356976   0.189298422   0.500000000
N        0.236606690   0.331550766   0.500000000
N        0.237086265   0.476258753   0.500000000
N        0.236798847   0.619286824   0.500000000
N        0.237824881   0.762175112   0.500000000
N        0.238064415   0.904776838   0.500000000
N        0.381108732   0.047384405   0.500000000
N        0.380975188   0.189330705   0.500000000
N        0.380061707   0.330400502   0.500000000
C1       0.382876291   0.476047748   0.500000000
N        0.378914767   0.621085317   0.500000000
N        0.380713221   0.763201163   0.500000000
N        0.381059305   0.905323908   0.500000000
N        0.523926768   0.047835336   0.500000000
N        0.523932932   0.190455936   0.500000000
N        0.523729758   0.333436197   0.500000000
N        0.523359680   0.476640318   0.500000000
C3       0.523952203   0.617123578   0.500000000
N        0.523741256   0.762913714   0.500000000
N        0.523928027   0.905418945   0.500000000
N        0.666702395   0.047816956   0.500000000
N        0.666662653   0.190510378   0.500000000
N        0.666622716   0.333377343   0.500000000
N        0.666563836   0.476270261   0.500000000
N        0.669599471   0.619938308   0.500000000
N        0.668449210   0.763393273   0.500000000
N        0.666838217   0.905067128   0.500000000
N        0.809607438   0.047753205   0.500000000
N        0.809479512   0.190520451   0.500000000
N        0.809489626   0.333337370   0.500000000
N        0.809544063   0.476067117   0.500000000
N        0.810669325   0.619024848   0.500000000
N        0.810701606   0.762643038   0.500000000
N        0.810339985   0.905547002   0.500000000
N        0.952388755   0.047611163   0.500000000
N        0.952246733   0.190392515   0.500000000
N        0.952183002   0.333297617   0.500000000
N        0.952164636   0.476073277   0.500000000
N        0.952615555   0.618891283   0.500000000
N        0.952856590   0.762051945   0.500000000
N        0.952751557   0.905046175   0.500000000


K_POINTS gamma 

CELL_PARAMETERS alat
   1.000973883   0.000171090   0.000000000
  -0.500338773   0.866954349   0.000000000
   0.000000000   0.000000000   1.137203616


OCCUPATIONS
  1.0 1.0 1.0 1.0 1.0 1.0 1.0 1.0
  1.0 1.0 1.0 1.0 1.0 1.0 1.0 1.0
  1.0 1.0 1.0 1.0 1.0 1.0 1.0 1.0
  1.0 1.0 1.0 1.0 1.0 1.0 1.0 1.0
  1.0 1.0 1.0 1.0 1.0 1.0 1.0 1.0
  1.0 1.0 1.0 1.0 1.0 1.0 1.0 1.0
  1.0 1.0 1.0 1.0 1.0 1.0 1.0 1.0
  1.0 1.0 1.0 1.0 1.0 1.0 1.0 1.0
  1.0 1.0 1.0 1.0 1.0 1.0 1.0 1.0
  1.0 1.0 1.0 1.0 1.0 1.0 1.0 1.0
  1.0 1.0 1.0 1.0 1.0 1.0 1.0 1.0
  1.0 1.0 1.0 1.0 1.0 1.0 1.0 1.0
  1.0 1.0 1.0 1.0 1.0 1.0 1.0 1.0
  1.0 1.0 1.0 1.0 1.0 1.0 1.0 1.0
  1.0 1.0 1.0 1.0 1.0 1.0 1.0 1.0
  1.0 1.0 1.0 1.0 1.0 1.0 1.0 1.0
  1.0 1.0 1.0 1.0 1.0 1.0 1.0 1.0
  1.0 1.0 1.0 1.0 1.0 1.0 1.0 1.0
  1.0 1.0 1.0 1.0 1.0 1.0 1.0 1.0
  1.0 1.0 1.0 1.0 1.0 1.0 1.0 1.0
  1.0 1.0 1.0 1.0 1.0 1.0 1.0 1.0
  1.0 1.0 1.0 1.0 1.0 1.0 1.0 1.0
  1.0 1.0 1.0 1.0 1.0 1.0 1.0 1.0
  1.0 1.0 1.0 1.0 1.0 1.0 1.0 1.0
  1.0 1.0 1.0 0.0 1.0 0.0 0.0 0.0
  0.0 0.0 0.0 0.0 0.0 0.0 0.0 0.0
  0.0 0.0 0.0 0.0 0.0 0.0 0.0 0.0
  0.0 0.0 0.0 0.0 0.0 0.0 0.0 0.0
  0.0 0.0 0.0 0.0 0.0 0.0 0.0 0.0
  0.0 0.0 0.0 0.0 0.0 0.0 0.0 0.0
  0.0 0.0 0.0 0.0 0.0
  1.0 1.0 1.0 1.0 1.0 1.0 1.0 1.0
  1.0 1.0 1.0 1.0 1.0 1.0 1.0 1.0
  1.0 1.0 1.0 1.0 1.0 1.0 1.0 1.0
  1.0 1.0 1.0 1.0 1.0 1.0 1.0 1.0
  1.0 1.0 1.0 1.0 1.0 1.0 1.0 1.0
  1.0 1.0 1.0 1.0 1.0 1.0 1.0 1.0
  1.0 1.0 1.0 1.0 1.0 1.0 1.0 1.0
  1.0 1.0 1.0 1.0 1.0 1.0 1.0 1.0
  1.0 1.0 1.0 1.0 1.0 1.0 1.0 1.0
  1.0 1.0 1.0 1.0 1.0 1.0 1.0 1.0
  1.0 1.0 1.0 1.0 1.0 1.0 1.0 1.0
  1.0 1.0 1.0 1.0 1.0 1.0 1.0 1.0
  1.0 1.0 1.0 1.0 1.0 1.0 1.0 1.0
  1.0 1.0 1.0 1.0 1.0 1.0 1.0 1.0
  1.0 1.0 1.0 1.0 1.0 1.0 1.0 1.0
  1.0 1.0 1.0 1.0 1.0 1.0 1.0 1.0
  1.0 1.0 1.0 1.0 1.0 1.0 1.0 1.0
  1.0 1.0 1.0 1.0 1.0 1.0 1.0 1.0
  1.0 1.0 1.0 1.0 1.0 1.0 1.0 1.0
  1.0 1.0 1.0 1.0 1.0 1.0 1.0 1.0
  1.0 1.0 1.0 1.0 1.0 1.0 1.0 1.0
  1.0 1.0 1.0 1.0 1.0 1.0 1.0 1.0
  1.0 1.0 1.0 1.0 1.0 1.0 1.0 1.0
  1.0 1.0 1.0 1.0 1.0 1.0 1.0 1.0
  1.0 1.0 0.0 1.0 0.0 0.0 0.0 0.0
  0.0 0.0 0.0 0.0 0.0 0.0 0.0 0.0
  0.0 0.0 0.0 0.0 0.0 0.0 0.0 0.0
  0.0 0.0 0.0 0.0 0.0 0.0 0.0 0.0
  0.0 0.0 0.0 0.0 0.0 0.0 0.0 0.0
  0.0 0.0 0.0 0.0 0.0 0.0 0.0 0.0
  0.0 0.0 0.0 0.0 0.0
  
