&CONTROL
	calculation = 'vc-relax'
	restart_mode = 'from_scratch'
	prefix = 'C2Cn'
	pseudo_dir ='./pseudo/'
	outdir='./TMP_DIR/'
	etot_conv_thr = 1.0E-6		
	forc_conv_thr = 1.94E-5
	tstress = .true.		
/
&SYSTEM
	ibrav = 0,
	celldm(1) = 33.23461096
	nat= 98,
	ntyp= 5,
	ecutwfc = 40.0
	nbnd = 245
	occupations = 'from_input' 
	nspin = 2,			! required for spin polarized calc
	starting_magnetization(3) = 1
	vdw_corr = 'Grimme-D3'
/
&ELECTRONS
	diagonalization = 'cg'
	conv_thr = 1.0E-10		! get to -12
/
&IONS
	ion_dynamics="bfgs"
/
&CELL
	cell_dofree = "2Dxy"
	cell_dynamics = 'bfgs'
	press = 0.0
	press_conv_thr = 0.1
	cell_factor = 4.0
/

ATOMIC_SPECIES
  B  10 B.pbe-n-kjpaw_psl.1.0.0.UPF
  N  14 N.pbe-n-kjpaw_psl.1.0.0.UPF
  C1 12 C.pbe-n-kjpaw_psl.1.0.0.UPF
  C2 12 C.pbe-n-kjpaw_psl.1.0.0.UPF
  C3 12 C.pbe-n-kjpaw_psl.1.0.0.UPF

ATOMIC_POSITIONS {crystal}
B        0.047371827   0.094771808   0.500000000
B        0.047556435   0.237847186   0.500000000
B        0.047470789   0.381059947   0.500000000
B        0.047183893   0.523845233   0.500000000
B        0.047459785   0.666700849   0.500000000
B        0.047769985   0.809661744   0.500000000
B        0.047662361   0.952336866   0.500000000
B        0.190065537   0.094512893   0.500000000
B        0.189525991   0.236864085   0.500000000
B        0.190401499   0.380785364   0.500000000
B        0.189486283   0.524308956   0.500000000
B        0.189457726   0.667033009   0.500000000
B        0.190229441   0.809769597   0.500000000
B        0.190337372   0.952228886   0.500000000
B        0.333360719   0.094589657   0.500000000
B        0.333037236   0.236306324   0.500000000
B        0.331776268   0.377246213   0.500000000
B        0.332574430   0.526921043   0.500000000
B        0.331612665   0.668386637   0.500000000
B        0.332966254   0.810541620   0.500000000
B        0.333298645   0.952539508   0.500000000
B        0.476319297   0.095155486   0.500000000
B        0.476435081   0.237854209   0.500000000
B        0.476517048   0.380815123   0.500000000
C2       0.477762081   0.522234983   0.500000000
B        0.473079244   0.667425444   0.500000000
B        0.475690511   0.810513578   0.500000000
B        0.476154662   0.952815954   0.500000000
B        0.619007800   0.095164653   0.500000000
B        0.619232073   0.237930233   0.500000000
B        0.619320750   0.380679813   0.500000000
B        0.619185484   0.523483604   0.500000000
B        0.622753239   0.668224026   0.500000000
B        0.619214475   0.809598725   0.500000000
B        0.618939968   0.952529107   0.500000000
B        0.761915787   0.095153652   0.500000000
B        0.761967832   0.238032865   0.500000000
B        0.762070526   0.380768730   0.500000000
B        0.762146349   0.523565470   0.500000000
B        0.763693441   0.666963047   0.500000000
B        0.763135988   0.810474318   0.500000000
B        0.762152823   0.952443570   0.500000000
B        0.904884995   0.095114844   0.500000000
B        0.904846136   0.238084165   0.500000000
B        0.904835605   0.380992559   0.500000000
B        0.904844689   0.523680929   0.500000000
B        0.905409794   0.666638940   0.500000000
B        0.905486729   0.809934238   0.500000000
B        0.905227874   0.952627814   0.500000000
N        0.095032656   0.047329806   0.500000000
N        0.094643264   0.189795862   0.500000000
N        0.095339704   0.333404522   0.500000000
N        0.094607313   0.476193561   0.500000000
N        0.094548454   0.619006295   0.500000000
N        0.095087716   0.761985861   0.500000000
N        0.095216106   0.904783421   0.500000000
N        0.238002709   0.047307729   0.500000000
N        0.237650618   0.189605127   0.500000000
N        0.236935773   0.331800201   0.500000000
N        0.237734285   0.476899370   0.500000000
N        0.236411494   0.619461478   0.500000000
N        0.237630963   0.762367986   0.500000000
N        0.238013437   0.904911630   0.500000000
N        0.381121436   0.047482240   0.500000000
N        0.381074195   0.189480726   0.500000000
N        0.380432211   0.331030826   0.500000000
C1       0.384273305   0.477210338   0.500000000
N        0.378182407   0.621816332   0.500000000
N        0.380537246   0.763587629   0.500000000
N        0.380992906   0.905451090   0.500000000
N        0.523936756   0.047804122   0.500000000
N        0.524026367   0.190392347   0.500000000
N        0.524121137   0.333268086   0.500000000
N        0.524172185   0.475828710   0.500000000
C3       0.522791231   0.615729552   0.500000000
N        0.523100220   0.762265713   0.500000000
N        0.523805914   0.905392540   0.500000000
N        0.666672523   0.047597233   0.500000000
N        0.666774841   0.190334666   0.500000000
N        0.666903577   0.333097348   0.500000000
N        0.666732505   0.475879572   0.500000000
N        0.668969774   0.619568031   0.500000000
N        0.668199985   0.763064647   0.500000000
N        0.666595730   0.904660694   0.500000000
N        0.809596154   0.047592479   0.500000000
N        0.809589204   0.190411481   0.500000000
N        0.809666292   0.333225976   0.500000000
N        0.809608275   0.475974054   0.500000000
N        0.810519192   0.618925688   0.500000000
N        0.810394991   0.762349455   0.500000000
N        0.810204590   0.905357111   0.500000000
N        0.952427461   0.047573104   0.500000000
N        0.952408227   0.190404515   0.500000000
N        0.952403256   0.333327730   0.500000000
N        0.952196258   0.476063236   0.500000000
N        0.952517580   0.618878162   0.500000000
N        0.952691806   0.761996761   0.500000000
N        0.952670346   0.904967454   0.500000000


K_POINTS gamma 

CELL_PARAMETERS alat
   1.001325066  -0.000545679   0.000000000
  -0.501135101   0.866899623   0.000000000
   0.000000000   0.000000000   1.137203616


OCCUPATIONS
  1.0 1.0 1.0 1.0 1.0 1.0 1.0 1.0
  1.0 1.0 1.0 1.0 1.0 1.0 1.0 1.0
  1.0 1.0 1.0 1.0 1.0 1.0 1.0 1.0
  1.0 1.0 1.0 1.0 1.0 1.0 1.0 1.0
  1.0 1.0 1.0 1.0 1.0 1.0 1.0 1.0
  1.0 1.0 1.0 1.0 1.0 1.0 1.0 1.0
  1.0 1.0 1.0 1.0 1.0 1.0 1.0 1.0
  1.0 1.0 1.0 1.0 1.0 1.0 1.0 1.0
  1.0 1.0 1.0 1.0 1.0 1.0 1.0 1.0
  1.0 1.0 1.0 1.0 1.0 1.0 1.0 1.0
  1.0 1.0 1.0 1.0 1.0 1.0 1.0 1.0
  1.0 1.0 1.0 1.0 1.0 1.0 1.0 1.0
  1.0 1.0 1.0 1.0 1.0 1.0 1.0 1.0
  1.0 1.0 1.0 1.0 1.0 1.0 1.0 1.0
  1.0 1.0 1.0 1.0 1.0 1.0 1.0 1.0
  1.0 1.0 1.0 1.0 1.0 1.0 1.0 1.0
  1.0 1.0 1.0 1.0 1.0 1.0 1.0 1.0
  1.0 1.0 1.0 1.0 1.0 1.0 1.0 1.0
  1.0 1.0 1.0 1.0 1.0 1.0 1.0 1.0
  1.0 1.0 1.0 1.0 1.0 1.0 1.0 1.0
  1.0 1.0 1.0 1.0 1.0 1.0 1.0 1.0
  1.0 1.0 1.0 1.0 1.0 1.0 1.0 1.0
  1.0 1.0 1.0 1.0 1.0 1.0 1.0 1.0
  1.0 1.0 1.0 1.0 1.0 1.0 1.0 1.0
  1.0 1.0 1.0 0.0 1.0 0.0 0.0 0.0
  0.0 0.0 0.0 0.0 0.0 0.0 0.0 0.0
  0.0 0.0 0.0 0.0 0.0 0.0 0.0 0.0
  0.0 0.0 0.0 0.0 0.0 0.0 0.0 0.0
  0.0 0.0 0.0 0.0 0.0 0.0 0.0 0.0
  0.0 0.0 0.0 0.0 0.0 0.0 0.0 0.0
  0.0 0.0 0.0 0.0 0.0
  1.0 1.0 1.0 1.0 1.0 1.0 1.0 1.0
  1.0 1.0 1.0 1.0 1.0 1.0 1.0 1.0
  1.0 1.0 1.0 1.0 1.0 1.0 1.0 1.0
  1.0 1.0 1.0 1.0 1.0 1.0 1.0 1.0
  1.0 1.0 1.0 1.0 1.0 1.0 1.0 1.0
  1.0 1.0 1.0 1.0 1.0 1.0 1.0 1.0
  1.0 1.0 1.0 1.0 1.0 1.0 1.0 1.0
  1.0 1.0 1.0 1.0 1.0 1.0 1.0 1.0
  1.0 1.0 1.0 1.0 1.0 1.0 1.0 1.0
  1.0 1.0 1.0 1.0 1.0 1.0 1.0 1.0
  1.0 1.0 1.0 1.0 1.0 1.0 1.0 1.0
  1.0 1.0 1.0 1.0 1.0 1.0 1.0 1.0
  1.0 1.0 1.0 1.0 1.0 1.0 1.0 1.0
  1.0 1.0 1.0 1.0 1.0 1.0 1.0 1.0
  1.0 1.0 1.0 1.0 1.0 1.0 1.0 1.0
  1.0 1.0 1.0 1.0 1.0 1.0 1.0 1.0
  1.0 1.0 1.0 1.0 1.0 1.0 1.0 1.0
  1.0 1.0 1.0 1.0 1.0 1.0 1.0 1.0
  1.0 1.0 1.0 1.0 1.0 1.0 1.0 1.0
  1.0 1.0 1.0 1.0 1.0 1.0 1.0 1.0
  1.0 1.0 1.0 1.0 1.0 1.0 1.0 1.0
  1.0 1.0 1.0 1.0 1.0 1.0 1.0 1.0
  1.0 1.0 1.0 1.0 1.0 1.0 1.0 1.0
  1.0 1.0 1.0 1.0 1.0 1.0 1.0 1.0
  1.0 1.0 1.0 0.0 0.0 0.0 0.0 0.0
  0.0 0.0 0.0 0.0 0.0 0.0 0.0 0.0
  0.0 0.0 0.0 0.0 0.0 0.0 0.0 0.0
  0.0 0.0 0.0 0.0 0.0 0.0 0.0 0.0
  0.0 0.0 0.0 0.0 0.0 0.0 0.0 0.0
  0.0 0.0 0.0 0.0 0.0 0.0 0.0 0.0
  0.0 0.0 0.0 0.0 0.0
  
