&CONTROL
	calculation = 'vc-relax'
	restart_mode = 'from_scratch'
	prefix = 'C2Cn'
	pseudo_dir ='./pseudo/'
	outdir='./TMP_DIR/'
	etot_conv_thr = 1.0E-5		
	forc_conv_thr = 1.94E-4
	tstress = .true.		
/
&SYSTEM
	ibrav = 0,
	celldm(1) = 33.23461096
	nat= 98,
	ntyp= 5,
	ecutwfc = 40.0
	nbnd = 245
	occupations = 'from_input' 
	nspin = 2,			! required for spin polarized calc
	starting_magnetization(3) = 1
	vdw_corr = 'Grimme-D3'
/
&ELECTRONS
	diagonalization = 'cg'
	conv_thr = 1.0E-8		! get to -12
/
&IONS
	ion_dynamics="bfgs"
/
&CELL
	cell_dofree = "2Dxy"
	cell_dynamics = 'bfgs'
	press = 0.0
	press_conv_thr = 0.1
	cell_factor = 4.0
/

ATOMIC_SPECIES
  B  10 B.pbe-n-kjpaw_psl.1.0.0.UPF
  N  14 N.pbe-n-kjpaw_psl.1.0.0.UPF
  C1 12 C.pbe-n-kjpaw_psl.1.0.0.UPF
  C2 12 C.pbe-n-kjpaw_psl.1.0.0.UPF
  C3 12 C.pbe-n-kjpaw_psl.1.0.0.UPF

ATOMIC_POSITIONS {crystal}
B        0.047343262   0.094762017   0.500000000
B        0.047510350   0.237842193   0.500000000
B        0.047441875   0.381023630   0.500000000
B        0.047165164   0.523774237   0.500000000
B        0.047471426   0.666653972   0.500000000
B        0.047834498   0.809617548   0.500000000
B        0.047695406   0.952307454   0.500000000
B        0.190034013   0.094432196   0.500000000
B        0.189462509   0.236807901   0.500000000
B        0.190399255   0.380731786   0.500000000
B        0.189533326   0.524237509   0.500000000
B        0.189474721   0.666939619   0.500000000
B        0.190298104   0.809702015   0.500000000
B        0.190383135   0.952166749   0.500000000
B        0.333342341   0.094555732   0.500000000
B        0.332946335   0.236255019   0.500000000
B        0.331730075   0.377217360   0.500000000
B        0.332624519   0.526868805   0.500000000
B        0.331671961   0.668325577   0.500000000
B        0.333058708   0.810525482   0.500000000
B        0.333345022   0.952529443   0.500000000
B        0.476313867   0.095200682   0.500000000
B        0.476355968   0.237856769   0.500000000
B        0.476450280   0.380814469   0.500000000
C2       0.477790267   0.522239032   0.500000000
B        0.473124217   0.667375953   0.500000000
B        0.475760595   0.810466593   0.500000000
B        0.476224427   0.952836656   0.500000000
B        0.618992304   0.095241391   0.500000000
B        0.619175578   0.238019794   0.500000000
B        0.619250544   0.380750437   0.500000000
B        0.619183637   0.523547846   0.500000000
B        0.622789366   0.668270799   0.500000000
B        0.619268419   0.809601143   0.500000000
B        0.618977837   0.952560977   0.500000000
B        0.761887479   0.095231539   0.500000000
B        0.761889915   0.238112170   0.500000000
B        0.761981519   0.380825400   0.500000000
B        0.762141862   0.523642553   0.500000000
B        0.763745622   0.667052125   0.500000000
B        0.763193539   0.810537561   0.500000000
B        0.762160839   0.952493210   0.500000000
B        0.904851203   0.095153262   0.500000000
B        0.904772251   0.238115476   0.500000000
B        0.904761032   0.381008303   0.500000000
B        0.904799683   0.523685107   0.500000000
B        0.905444401   0.666656878   0.500000000
B        0.905569652   0.809966613   0.500000000
B        0.905241525   0.952660057   0.500000000
N        0.095005554   0.047288035   0.500000000
N        0.094587156   0.189771766   0.500000000
N        0.095329321   0.333381965   0.500000000
N        0.094622276   0.476147168   0.500000000
N        0.094540308   0.618942784   0.500000000
N        0.095151637   0.761939806   0.500000000
N        0.095263417   0.904734451   0.500000000
N        0.237998070   0.047234504   0.500000000
N        0.237573347   0.189526433   0.500000000
N        0.236906161   0.331742538   0.500000000
N        0.237794467   0.476838229   0.500000000
N        0.236461398   0.619390126   0.500000000
N        0.237696866   0.762305399   0.500000000
N        0.238060584   0.904847511   0.500000000
N        0.381124007   0.047470072   0.500000000
N        0.381008692   0.189454966   0.500000000
N        0.380362338   0.330989768   0.500000000
C1       0.384282285   0.477170359   0.500000000
N        0.378251586   0.621756828   0.500000000
N        0.380614713   0.763540954   0.500000000
N        0.381059663   0.905459394   0.500000000
N        0.523934391   0.047846597   0.500000000
N        0.523978390   0.190435879   0.500000000
N        0.524044952   0.333286082   0.500000000
N        0.524153952   0.475842417   0.500000000
C3       0.522815427   0.615693262   0.500000000
N        0.523162523   0.762206369   0.500000000
N        0.523855351   0.905377871   0.500000000
N        0.666657678   0.047661977   0.500000000
N        0.666715765   0.190410943   0.500000000
N        0.666821265   0.333178008   0.500000000
N        0.666712957   0.475953739   0.500000000
N        0.669005140   0.619638875   0.500000000
N        0.668256152   0.763093075   0.500000000
N        0.666617279   0.904668962   0.500000000
N        0.809567500   0.047649621   0.500000000
N        0.809515873   0.190481820   0.500000000
N        0.809587700   0.333283703   0.500000000
N        0.809563312   0.476022286   0.500000000
N        0.810544228   0.618993555   0.500000000
N        0.810470503   0.762426119   0.500000000
N        0.810224704   0.905410429   0.500000000
N        0.952399664   0.047595945   0.500000000
N        0.952347653   0.190429805   0.500000000
N        0.952336239   0.333342043   0.500000000
N        0.952152081   0.476066861   0.500000000
N        0.952529508   0.618877635   0.500000000
N        0.952763827   0.762002257   0.500000000
N        0.952708302   0.904991776   0.500000000


K_POINTS gamma 

CELL_PARAMETERS alat
   1.001291341  -0.000539822   0.000000000
  -0.501113167   0.866873067   0.000000000
   0.000000000   0.000000000   1.137203616


OCCUPATIONS
  1.0 1.0 1.0 1.0 1.0 1.0 1.0 1.0
  1.0 1.0 1.0 1.0 1.0 1.0 1.0 1.0
  1.0 1.0 1.0 1.0 1.0 1.0 1.0 1.0
  1.0 1.0 1.0 1.0 1.0 1.0 1.0 1.0
  1.0 1.0 1.0 1.0 1.0 1.0 1.0 1.0
  1.0 1.0 1.0 1.0 1.0 1.0 1.0 1.0
  1.0 1.0 1.0 1.0 1.0 1.0 1.0 1.0
  1.0 1.0 1.0 1.0 1.0 1.0 1.0 1.0
  1.0 1.0 1.0 1.0 1.0 1.0 1.0 1.0
  1.0 1.0 1.0 1.0 1.0 1.0 1.0 1.0
  1.0 1.0 1.0 1.0 1.0 1.0 1.0 1.0
  1.0 1.0 1.0 1.0 1.0 1.0 1.0 1.0
  1.0 1.0 1.0 1.0 1.0 1.0 1.0 1.0
  1.0 1.0 1.0 1.0 1.0 1.0 1.0 1.0
  1.0 1.0 1.0 1.0 1.0 1.0 1.0 1.0
  1.0 1.0 1.0 1.0 1.0 1.0 1.0 1.0
  1.0 1.0 1.0 1.0 1.0 1.0 1.0 1.0
  1.0 1.0 1.0 1.0 1.0 1.0 1.0 1.0
  1.0 1.0 1.0 1.0 1.0 1.0 1.0 1.0
  1.0 1.0 1.0 1.0 1.0 1.0 1.0 1.0
  1.0 1.0 1.0 1.0 1.0 1.0 1.0 1.0
  1.0 1.0 1.0 1.0 1.0 1.0 1.0 1.0
  1.0 1.0 1.0 1.0 1.0 1.0 1.0 1.0
  1.0 1.0 1.0 1.0 1.0 1.0 1.0 1.0
  1.0 1.0 1.0 0.0 1.0 0.0 0.0 0.0
  0.0 0.0 0.0 0.0 0.0 0.0 0.0 0.0
  0.0 0.0 0.0 0.0 0.0 0.0 0.0 0.0
  0.0 0.0 0.0 0.0 0.0 0.0 0.0 0.0
  0.0 0.0 0.0 0.0 0.0 0.0 0.0 0.0
  0.0 0.0 0.0 0.0 0.0 0.0 0.0 0.0
  0.0 0.0 0.0 0.0 0.0
  1.0 1.0 1.0 1.0 1.0 1.0 1.0 1.0
  1.0 1.0 1.0 1.0 1.0 1.0 1.0 1.0
  1.0 1.0 1.0 1.0 1.0 1.0 1.0 1.0
  1.0 1.0 1.0 1.0 1.0 1.0 1.0 1.0
  1.0 1.0 1.0 1.0 1.0 1.0 1.0 1.0
  1.0 1.0 1.0 1.0 1.0 1.0 1.0 1.0
  1.0 1.0 1.0 1.0 1.0 1.0 1.0 1.0
  1.0 1.0 1.0 1.0 1.0 1.0 1.0 1.0
  1.0 1.0 1.0 1.0 1.0 1.0 1.0 1.0
  1.0 1.0 1.0 1.0 1.0 1.0 1.0 1.0
  1.0 1.0 1.0 1.0 1.0 1.0 1.0 1.0
  1.0 1.0 1.0 1.0 1.0 1.0 1.0 1.0
  1.0 1.0 1.0 1.0 1.0 1.0 1.0 1.0
  1.0 1.0 1.0 1.0 1.0 1.0 1.0 1.0
  1.0 1.0 1.0 1.0 1.0 1.0 1.0 1.0
  1.0 1.0 1.0 1.0 1.0 1.0 1.0 1.0
  1.0 1.0 1.0 1.0 1.0 1.0 1.0 1.0
  1.0 1.0 1.0 1.0 1.0 1.0 1.0 1.0
  1.0 1.0 1.0 1.0 1.0 1.0 1.0 1.0
  1.0 1.0 1.0 1.0 1.0 1.0 1.0 1.0
  1.0 1.0 1.0 1.0 1.0 1.0 1.0 1.0
  1.0 1.0 1.0 1.0 1.0 1.0 1.0 1.0
  1.0 1.0 1.0 1.0 1.0 1.0 1.0 1.0
  1.0 1.0 1.0 1.0 1.0 1.0 1.0 1.0
  1.0 1.0 1.0 0.0 0.0 0.0 0.0 0.0
  0.0 0.0 0.0 0.0 0.0 0.0 0.0 0.0
  0.0 0.0 0.0 0.0 0.0 0.0 0.0 0.0
  0.0 0.0 0.0 0.0 0.0 0.0 0.0 0.0
  0.0 0.0 0.0 0.0 0.0 0.0 0.0 0.0
  0.0 0.0 0.0 0.0 0.0 0.0 0.0 0.0
  0.0 0.0 0.0 0.0 0.0
  
