&CONTROL
	calculation = 'vc-relax'
	restart_mode = 'from_scratch'
	prefix = 'C2Cn'
	pseudo_dir ='./pseudo/'
	outdir='./TMP_DIR/'
	etot_conv_thr = 1.0E-5		
	forc_conv_thr = 1.94E-4
	tstress = .true.		
/
&SYSTEM
	ibrav = 0,
	celldm(1) = 33.23461096
	nat= 98,
	ntyp= 5,
	ecutwfc = 40.0
	nbnd = 245
	occupations = 'from_input' 
	nspin = 2,			! required for spin polarized calc
	starting_magnetization(3) = 1
	vdw_corr = 'Grimme-D3'
/
&ELECTRONS
	diagonalization = 'cg'
	conv_thr = 1.0E-6		! get to -12
/
&IONS
	ion_dynamics="bfgs"
/
&CELL
	cell_dofree = "2Dxy"
	cell_dynamics = 'bfgs'
	press = 0.0
	press_conv_thr = 0.1
	cell_factor = 4.0
/

ATOMIC_SPECIES
  B  10 B.pbe-n-kjpaw_psl.1.0.0.UPF
  N  14 N.pbe-n-kjpaw_psl.1.0.0.UPF
  C1 12 C.pbe-n-kjpaw_psl.1.0.0.UPF
  C2 12 C.pbe-n-kjpaw_psl.1.0.0.UPF
  C3 12 C.pbe-n-kjpaw_psl.1.0.0.UPF

ATOMIC_POSITIONS {crystal}
B        0.047276875   0.094723611   0.500000000
B        0.047391949   0.237832673   0.500000000
B        0.047348380   0.380929954   0.500000000
B        0.047197402   0.523767666   0.500000000
B        0.047617688   0.666684890   0.500000000
B        0.047878263   0.809665920   0.500000000
B        0.047677282   0.952322769   0.500000000
B        0.189886696   0.094323008   0.500000000
B        0.189228686   0.236512245   0.500000000
B        0.190155110   0.380833255   0.500000000
B        0.189526922   0.523795887   0.500000000
B        0.189617749   0.666835543   0.500000000
B        0.190312202   0.809687855   0.500000000
B        0.190334123   0.952121789   0.500000000
B        0.333194719   0.094303181   0.500000000
B        0.332619384   0.235950347   0.500000000
B        0.331410766   0.377179992   0.500000000
B        0.332410887   0.525310149   0.500000000
B        0.331904116   0.668095897   0.500000000
B        0.333164486   0.810382308   0.500000000
B        0.333315129   0.952382352   0.500000000
B        0.476257895   0.095134613   0.500000000
B        0.476064052   0.237625552   0.500000000
B        0.474805855   0.379468469   0.500000000
C2       0.477596942   0.522403054   0.500000000
B        0.474689849   0.667589107   0.500000000
B        0.476204126   0.810473127   0.500000000
B        0.476232341   0.952802646   0.500000000
B        0.618987500   0.095249880   0.500000000
B        0.619042477   0.237971397   0.500000000
B        0.619101154   0.380898818   0.500000000
B        0.620531530   0.525194139   0.500000000
B        0.622820020   0.668589228   0.500000000
B        0.619166768   0.809844924   0.500000000
B        0.619070049   0.952651645   0.500000000
B        0.761869498   0.095267544   0.500000000
B        0.761866388   0.238133558   0.500000000
B        0.762028557   0.380957480   0.500000000
B        0.762374414   0.523935925   0.500000000
B        0.764049619   0.667380583   0.500000000
B        0.763487762   0.810771316   0.500000000
B        0.762167327   0.952608068   0.500000000
B        0.904824275   0.095175703   0.500000000
B        0.904732429   0.238130467   0.500000000
B        0.904750091   0.381012465   0.500000000
B        0.904865355   0.523742076   0.500000000
B        0.905696793   0.666805266   0.500000000
B        0.905676987   0.810113314   0.500000000
B        0.905276390   0.952723144   0.500000000
N        0.094933361   0.047218368   0.500000000
N        0.094451369   0.189656373   0.500000000
N        0.094972449   0.333200200   0.500000000
N        0.094561778   0.476075488   0.500000000
N        0.094667244   0.618931722   0.500000000
N        0.095227431   0.761928319   0.500000000
N        0.095276033   0.904723921   0.500000000
N        0.237950370   0.047110694   0.500000000
N        0.237287198   0.189193574   0.500000000
N        0.236606797   0.331507171   0.500000000
N        0.237149964   0.476331419   0.500000000
N        0.236766494   0.619294383   0.500000000
N        0.237808860   0.762191092   0.500000000
N        0.238071614   0.904772516   0.500000000
N        0.381122713   0.047371228   0.500000000
N        0.380967728   0.189271523   0.500000000
N        0.379922677   0.330198989   0.500000000
C1       0.382853131   0.475962084   0.500000000
N        0.378888812   0.621111170   0.500000000
N        0.380705604   0.763233471   0.500000000
N        0.381068228   0.905332695   0.500000000
N        0.523934804   0.047858266   0.500000000
N        0.523933881   0.190476470   0.500000000
N        0.523673262   0.333486700   0.500000000
N        0.523105602   0.476894363   0.500000000
C3       0.524037907   0.617146860   0.500000000
N        0.523668589   0.762850024   0.500000000
N        0.523924510   0.905438180   0.500000000
N        0.666694820   0.047813311   0.500000000
N        0.666653960   0.190527128   0.500000000
N        0.666582502   0.333417528   0.500000000
N        0.666513305   0.476326707   0.500000000
N        0.669801029   0.620077319   0.500000000
N        0.668492842   0.763393207   0.500000000
N        0.666799827   0.905027532   0.500000000
N        0.809597988   0.047746388   0.500000000
N        0.809474788   0.190525282   0.500000000
N        0.809472944   0.333346094   0.500000000
N        0.809523595   0.476066131   0.500000000
N        0.810728548   0.619032276   0.500000000
N        0.810806464   0.762712795   0.500000000
N        0.810343643   0.905548609   0.500000000
N        0.952388296   0.047611714   0.500000000
N        0.952253633   0.190402051   0.500000000
N        0.952186701   0.333305232   0.500000000
N        0.952141744   0.476065208   0.500000000
N        0.952628774   0.618877242   0.500000000
N        0.952889302   0.762049583   0.500000000
N        0.952781625   0.905066607   0.500000000


K_POINTS gamma 

CELL_PARAMETERS alat
   1.000985564   0.000194846   0.000000000
  -0.500324040   0.866976348   0.000000000
   0.000000000   0.000000000   1.137203616


OCCUPATIONS
  1.0 1.0 1.0 1.0 1.0 1.0 1.0 1.0
  1.0 1.0 1.0 1.0 1.0 1.0 1.0 1.0
  1.0 1.0 1.0 1.0 1.0 1.0 1.0 1.0
  1.0 1.0 1.0 1.0 1.0 1.0 1.0 1.0
  1.0 1.0 1.0 1.0 1.0 1.0 1.0 1.0
  1.0 1.0 1.0 1.0 1.0 1.0 1.0 1.0
  1.0 1.0 1.0 1.0 1.0 1.0 1.0 1.0
  1.0 1.0 1.0 1.0 1.0 1.0 1.0 1.0
  1.0 1.0 1.0 1.0 1.0 1.0 1.0 1.0
  1.0 1.0 1.0 1.0 1.0 1.0 1.0 1.0
  1.0 1.0 1.0 1.0 1.0 1.0 1.0 1.0
  1.0 1.0 1.0 1.0 1.0 1.0 1.0 1.0
  1.0 1.0 1.0 1.0 1.0 1.0 1.0 1.0
  1.0 1.0 1.0 1.0 1.0 1.0 1.0 1.0
  1.0 1.0 1.0 1.0 1.0 1.0 1.0 1.0
  1.0 1.0 1.0 1.0 1.0 1.0 1.0 1.0
  1.0 1.0 1.0 1.0 1.0 1.0 1.0 1.0
  1.0 1.0 1.0 1.0 1.0 1.0 1.0 1.0
  1.0 1.0 1.0 1.0 1.0 1.0 1.0 1.0
  1.0 1.0 1.0 1.0 1.0 1.0 1.0 1.0
  1.0 1.0 1.0 1.0 1.0 1.0 1.0 1.0
  1.0 1.0 1.0 1.0 1.0 1.0 1.0 1.0
  1.0 1.0 1.0 1.0 1.0 1.0 1.0 1.0
  1.0 1.0 1.0 1.0 1.0 1.0 1.0 1.0
  1.0 1.0 1.0 1.0 0.0 0.0 0.0 0.0
  0.0 0.0 0.0 0.0 0.0 0.0 0.0 0.0
  0.0 0.0 0.0 0.0 0.0 0.0 0.0 0.0
  0.0 0.0 0.0 0.0 0.0 0.0 0.0 0.0
  0.0 0.0 0.0 0.0 0.0 0.0 0.0 0.0
  0.0 0.0 0.0 0.0 0.0 0.0 0.0 0.0
  0.0 0.0 0.0 0.0 0.0
  1.0 1.0 1.0 1.0 1.0 1.0 1.0 1.0
  1.0 1.0 1.0 1.0 1.0 1.0 1.0 1.0
  1.0 1.0 1.0 1.0 1.0 1.0 1.0 1.0
  1.0 1.0 1.0 1.0 1.0 1.0 1.0 1.0
  1.0 1.0 1.0 1.0 1.0 1.0 1.0 1.0
  1.0 1.0 1.0 1.0 1.0 1.0 1.0 1.0
  1.0 1.0 1.0 1.0 1.0 1.0 1.0 1.0
  1.0 1.0 1.0 1.0 1.0 1.0 1.0 1.0
  1.0 1.0 1.0 1.0 1.0 1.0 1.0 1.0
  1.0 1.0 1.0 1.0 1.0 1.0 1.0 1.0
  1.0 1.0 1.0 1.0 1.0 1.0 1.0 1.0
  1.0 1.0 1.0 1.0 1.0 1.0 1.0 1.0
  1.0 1.0 1.0 1.0 1.0 1.0 1.0 1.0
  1.0 1.0 1.0 1.0 1.0 1.0 1.0 1.0
  1.0 1.0 1.0 1.0 1.0 1.0 1.0 1.0
  1.0 1.0 1.0 1.0 1.0 1.0 1.0 1.0
  1.0 1.0 1.0 1.0 1.0 1.0 1.0 1.0
  1.0 1.0 1.0 1.0 1.0 1.0 1.0 1.0
  1.0 1.0 1.0 1.0 1.0 1.0 1.0 1.0
  1.0 1.0 1.0 1.0 1.0 1.0 1.0 1.0
  1.0 1.0 1.0 1.0 1.0 1.0 1.0 1.0
  1.0 1.0 1.0 1.0 1.0 1.0 1.0 1.0
  1.0 1.0 1.0 1.0 1.0 1.0 1.0 1.0
  1.0 1.0 1.0 1.0 1.0 1.0 1.0 1.0
  1.0 1.0 0.0 0.0 1.0 0.0 0.0 0.0
  0.0 0.0 0.0 0.0 0.0 0.0 0.0 0.0
  0.0 0.0 0.0 0.0 0.0 0.0 0.0 0.0
  0.0 0.0 0.0 0.0 0.0 0.0 0.0 0.0
  0.0 0.0 0.0 0.0 0.0 0.0 0.0 0.0
  0.0 0.0 0.0 0.0 0.0 0.0 0.0 0.0
  0.0 0.0 0.0 0.0 0.0
  
